%chk=EMOHORIN_PN_Ni_gaussain.chk
%nprocshared=32
%mem=64GB
#p opt rwb97xd/gen pseudo=read

This Gaussian input file was generated using the DART python program. This file was generated on the 2023-10-04 at 16:41:16

0 1
Ni  0.0  0.0  0.0 
P  1.412242490686356  -1.4441852884931343  1.4988938815711787e-16 
N  1.4122424906863558  1.4441852884931343  -3.80838110147368e-17 
C  2.5546984169904245  1.001642852912135  0.3732027587823866 
H  3.1038019749071517  1.5445323881033315  0.7517672252383463 
C  2.989785115352495  -0.4156750849652866  0.11422214584140819 
C  4.005069614975212  -0.9140504913170452  1.1452894177347908 
H  3.5859068334408635  -0.9457281093931404  2.0301471413770837 
H  4.771280867212341  -0.3026232582357962  1.1697905522360983 
H  4.311997622079494  -1.8106081528003508  0.8961212654950014 
C  3.6605648713812053  -0.3817703184577363  -1.2794894153183018 
H  4.0745238668059685  -1.2508066914217049  -1.463135004899295 
H  4.345829105522021  0.31729952254126986  -1.2953117670091718 
H  2.9835324189645664  -0.1913541528929075  -1.963897562746676 
C  1.11513895552083  2.845175124161037  0.16395130297552693 
C  0.23054115106595607  3.2253958197844796  1.1809590497372129 
C  -0.0759879296222028  4.577306153282714  1.2926267839900638 
H  -0.663422893970574  4.859528402219531  1.9838180779645538 
C  0.44558169064721675  5.52634702145973  0.42884906852048843 
C  1.3055115958363883  5.1008842467758  -0.578545196660552 
H  1.6658698643733332  5.744514705696944  -1.1784733678994308 
C  1.6554750168443224  3.7594335614406904  -0.736806855853135 
C  -0.34425012127923194  2.2246461884764392  2.1385697528273004 
H  -0.5918368281339175  1.4111023763622044  1.652436048626997 
H  -1.1394632714070274  2.6036963833244813  2.5698620964290697 
H  0.32204971289876316  2.005983498504369  2.822536578768862 
C  0.09120946548013054  6.979780307842343  0.5779308852023306 
H  -0.8792054633452435  7.071702151983625  0.6715595692823589 
H  0.39032737366270065  7.472670978223509  -0.2159272847850352 
H  0.5327523067930864  7.3430563771806545  1.3741823698046558 
C  2.558142706711549  3.3112784423179153  -1.8628186545807905 
H  3.43778253589923  3.075597305893145  -1.502776139257637 
H  2.656888691489627  4.0383459961603965  -2.5128762002179044 
H  2.1667225660433456  2.52887125814075  -2.3053836346992536 
C  1.953805813825697  -2.8994235683352247  -0.919938914228835 
C  1.7430804568201266  -2.9021273280474404  -2.295157192757144 
H  1.2108899535494246  -2.2258167377220737  -2.6959219412596225 
C  2.3162891096323923  -3.9004311790057256  -3.0857499017439083 
H  2.191764772031875  -3.891789403535887  -4.027394388300226 
C  3.0688047209949407  -4.906222074795552  -2.4958753569447842 
H  3.4494462496051552  -5.591063859212262  -3.034643671727862 
C  3.2683215027298527  -4.915178463635029  -1.1284608452091556 
H  3.780221374685607  -5.608614778891304  -0.7304745542699999 
C  2.722128106056907  -3.9173156225700527  -0.33725052307436393 
H  2.868632195512281  -3.9213921424230875  0.6012604431688479 
C  1.0318696216082777  -1.9778552380078323  1.6903732740002637 
C  1.1136371964804368  -1.0430344703702885  2.736486411329648 
H  1.424891900559068  -0.16300095934755113  2.558054215059147 
C  0.7468568295368596  -1.387818767764386  4.020157712985635 
H  0.8014340158473277  -0.7438672246972579  4.716341618944332 
C  0.29802255688619805  -2.667896206393404  4.297428405283158 
H  0.051655984590963655  -2.904475170825655  5.184654321069905 
C  0.2081189615697845  -3.6014179024956348  3.283324916256712 
H  -0.10278959242375918  -4.479497149046573  3.473140478922644 
C  0.5715204545595809  -3.2593346366319618  1.984967987631581 
H  0.505276986453036  -3.90619225070912  1.2914491558442636 
Br  -1.5839191898578664  1.5839191898578664  0.0 
C  -1.2937473829822488  -1.2398794889499034  -0.4598005675376139 
C  -1.601562203225019  -1.4938654694550033  -1.7919791134336869 
H  -1.1309417375171225  -1.0428217585005106  -2.480879663633267 
C  -2.60218398542082  -2.411889969420291  -2.121542410022959 
H  -2.8231586547736818  -2.5626138747145775  -3.03270050271447 
C  -3.2683208079706407  -3.09759503004543  -1.143064365570095 
H  -3.9596020908062854  -3.707191723557817  -1.3683280760515548 
C  -2.9347449854640226  -2.896087320001541  0.14198826503765638 
H  -3.3668350933519986  -3.405606940434718  0.8171022443470677 
C  -1.9675509241539992  -1.9516175659140573  0.5112421903797603 
H  -1.7755298364628027  -1.8022912010877177  1.4301324877763764 

-Ni 0
lanl2dz
F 1 1.0
3.130 1.0
****
-H 0
6-31g(d,p)
****
-P 0
6-31+g(d)
****
-N 0
6-31+g(d)
****
-C 0
6-31g(d)
****
-Br 0
6-31+g(d)
****

-Ni 0
lanl2dz


