%chk=OVEZAQOB_PN_Ni_gaussain.chk
%nprocshared=32
%mem=64GB
#p opt rwb97xd/gen pseudo=read

This Gaussian input file was generated using the DART python program. This file was generated on the 2023-08-13 at 16:51:13

0 1
Ni  0.0  0.0  0.0 
P  1.4457607409249975  -1.410629604113  -3.214763956604268e-17 
N  1.445760740924998  1.4106296041130004  1.6031460444159857e-16 
C  1.5167710137370447  2.6954351084889145  0.32803856035611545 
H  1.0052122508360963  3.003929541564161  1.0654764742586051 
C  2.31218490534736  3.616456541905481  -0.3643969097208064 
H  2.3485220363088573  4.523999227999177  -0.08391798746224194 
C  3.0341081233404306  3.202524693107259  -1.4421046539042988 
H  3.5236653016571555  3.8296603759403616  -1.960853778699747 
C  3.046777407697028  1.832692857474516  -1.7800570785456002 
C  3.8368979525833993  1.2797353286337163  -2.8280815800944583 
H  4.328570471825369  1.859222231231372  -3.39755948444199 
C  3.9000668023232006  -0.06669891212098926  -3.0275996287663793 
H  4.427959422790094  -0.4146908148633601  -3.737056031149464 
C  3.1866351820476284  -0.9483260638366962  -2.1870635923297277 
H  3.2667015657972476  -1.8885461018487115  -2.303543909610987 
C  2.374353831301516  -0.4421561961987834  -1.1992107073688318 
C  2.27670745244794  0.9545191282488773  -1.004394094176306 
C  2.679984115105344  -2.2616622752689866  1.0139528762482144 
H  3.225725922246458  -1.599515757659693  1.4868445225650635 
H  3.2548595413360237  -2.808485649562929  0.4391171330642265 
H  2.226276777347631  -2.8375833658453047  1.6648260506026413 
C  0.6214924231537949  -2.697139198629224  -0.9692382903787771 
H  1.2764796507269962  -3.1377475469779172  -1.549682736541735 
H  -0.08134874229556122  -2.292634459513959  -1.5178126173237276 
H  0.22419597680305325  -3.358050835023122  -0.3632908152654443 
Br  -1.5839191898578664  1.5839191898578664  0.0 
C  -1.2937473829822488  -1.2398794889499034  -0.4598005675376139 
C  -1.601562203225019  -1.4938654694550033  -1.7919791134336869 
H  -1.1309417375171225  -1.0428217585005106  -2.480879663633267 
C  -2.60218398542082  -2.411889969420291  -2.121542410022959 
H  -2.8231586547736818  -2.5626138747145775  -3.03270050271447 
C  -3.2683208079706407  -3.09759503004543  -1.143064365570095 
H  -3.9596020908062854  -3.707191723557817  -1.3683280760515548 
C  -2.9347449854640226  -2.896087320001541  0.14198826503765638 
H  -3.3668350933519986  -3.405606940434718  0.8171022443470677 
C  -1.9675509241539992  -1.9516175659140573  0.5112421903797603 
H  -1.7755298364628027  -1.8022912010877177  1.4301324877763764 

-Ni 0
lanl2dz
F 1 1.0
3.130 1.0
****
-C 0
6-31g(d)
****
-N 0
6-31+g(d)
****
-H 0
6-31g(d,p)
****
-Br 0
6-31+g(d)
****
-P 0
6-31+g(d)
****

-Ni 0
lanl2dz


