%chk=XUFICAQA_PN_Pd_gaussain.chk
%nprocshared=32
%mem=64GB
#p opt rwb97xd/gen pseudo=read

This Gaussian input file was generated using the DART python program. This file was generated on the 2023-10-04 at 09:55:46

0 1
Pd  0.0  0.0  0.0 
P  1.496319730204746  -1.501042059703857  -6.1801228544069965e-16 
P  2.378928771712138  1.6358948299453084  1.337230765502973 
C  3.143176133515391  -0.8948728060724757  0.4938520353575212 
H  3.7359689684803667  -1.6632706084815263  0.6884762940385031 
H  3.5434005266059843  -0.3780713846965505  -0.24867264843359888 
C  3.0284613501070945  -0.0062006290495533285  1.7354806031075454 
H  3.922234860863516  0.08800870977996493  2.1518576581279696 
H  2.431374119714685  -0.44130694454404024  2.394829731808832 
C  1.4526384089147566  2.5365252328446894  -1.0191660710171737 
H  2.052273909873149  3.278345841935206  -0.7590746641638016 
H  0.531560828827067  2.894791063254596  -1.0832549641307438 
C  1.8676897538702635  2.007613777720886  -2.340641384327824 
C  3.7391271627199294  2.7546866580246103  1.0272216809218602 
C  4.65823370007401  2.4491908346161253  0.029894109422404037 
H  4.569605639354731  1.6426414663466895  -0.4619978232186137 
C  5.695678636508916  3.313231096922885  -0.24896730594104086 
H  6.315463790595734  3.0966457668195178  -0.9350061951868619 
C  5.844230593727586  4.492889050910759  0.45937616837043727 
H  6.564135307847357  5.083871398317478  0.2660092693369645 
C  4.9419308669668975  4.800685516048552  1.4441300305798308 
H  5.034709791204296  5.6120440433640875  1.92887267505186 
C  3.8932148407006673  3.940051260899919  1.7394945259361845 
H  3.2793931425894502  4.160101807028628  2.430407783933407 
C  1.5093667609744374  2.213043094645443  2.797912489916425 
C  1.981717648323457  1.9062648454797593  4.065223089201183 
H  2.755687750540912  1.3642612155744729  4.1656264558928475 
C  1.3165199409913675  2.394647243068691  5.19538927339071 
H  1.6273108730822852  2.1806509909827407  6.0665821226630285 
C  0.2007085664527899  3.1950637085720195  5.026342983276009 
H  -0.24641927411827158  3.5382911629057405  5.790655268129457 
C  -0.2729412163059066  3.5055031742668956  3.765119120739413 
H  -1.044483490729816  4.051397328066732  3.664855310598615 
C  0.3874286730964194  3.0102361861142337  2.64237483568735 
H  0.06899858529506497  3.219507110915618  1.771114295311742 
C  1.2236844525800719  -2.83094532063836  1.1855546558258405 
C  0.4013891624372725  -2.622722058019281  2.3130100157906015 
H  -0.06423371462233485  -1.7998811675756936  2.4169106672454546 
C  0.27756448469367134  -3.613663228111117  3.264203590515916 
H  -0.29393329847647065  -3.4688324230083674  4.010499578529388 
C  0.9586750725247135  -4.80705596712165  3.161404769406851 
H  0.8730070680837652  -5.470967433530934  3.834612766823258 
C  1.7705903190072145  -5.019697380422868  2.0641155268283344 
H  2.2348438072823815  -5.842552634221473  1.9752662729182664 
C  1.9117799076804862  -4.043806231650525  1.0955344069431283 
H  2.4854960109606563  -4.200591088862607  0.354124081019605 
C  1.7620379149274195  -2.2491615495878037  -1.6349733591601836 
C  0.7179460359055438  -2.3097830021392087  -2.5474028126803945 
H  -0.1349534017503271  -1.965507795685663  -2.3138627701444623 
C  0.9219635889772937  -2.875125455079814  -3.8059690560469215 
H  0.21626719825159535  -2.903171214842405  -4.440321150294363 
C  2.1733463310144696  -3.394998066213678  -4.116488236009162 
H  2.3201277433670517  -3.7867598534323625  -4.970417325022452 
C  3.1850459829368747  -3.3518094163148286  -3.219497079519847 
H  4.031713307749274  -3.715020074853977  -3.4504623553052203 
C  3.0028817774710603  -2.7872692393612373  -1.9668416357316312 
H  3.717614486194979  -2.765663605601448  -1.3413258152522218 
N  1.4963197302047448  1.501042059703857  -1.8382463538018787e-16 
N  2.1644448997320813  1.5889027889535248  -3.3517389173532073 
Br  -1.654629867976521  1.654629867976521  0.0 
C  -1.352040782177733  -1.3199206589279684  -0.4819701001757076 
C  -1.6380700204479186  -1.599217458033982  -1.8139382277462257 
H  -1.1579680913617836  -1.159339363685303  -2.503515938957912 
C  -2.63068216563725  -2.52632649780156  -2.142289956238523 
H  -2.8368222554424674  -2.694399528648736  -3.0538898079700485 
C  -3.3101544432602585  -3.1961573187854975  -1.1619874135498987 
H  -3.9960123560788676  -3.811990145619169  -1.3868663427944008 
C  -2.9974710358883443  -2.9701089012107795  0.12423560353005347 
H  -3.438659168087169  -3.468581175155742  0.8017084178296768 
C  -2.0389854250767776  -2.015940632791841  0.4912562833419403 
H  -1.8619130127668426  -1.8492165108145995  1.4101568590026907 

-Pd 0
lanl2dz
F 1 1.0
1.472 1.0
****
-P 0
6-31+g(d)
****
-N 0
6-31+g(d)
****
-C 0
6-31g(d)
****
-H 0
6-31g(d,p)
****
-Br 0
6-31+g(d)
****

-Pd 0
lanl2dz


