%chk=RIDOPIVO_PN_Ni_gaussain.chk
%nprocshared=32
%mem=64GB
#p opt rwb97xd/gen pseudo=read

This Gaussian input file was generated using the DART python program. This file was generated on the 2023-10-04 at 16:41:16

0 1
Ni  0.0  0.0  0.0 
P  1.3218704843894507  1.5273370363151677  9.007320291803664e-17 
N  1.3218704843894507  -1.5273370363151673  0.0 
C  2.7497981330214647  0.45948629596066737  -0.28940070248127053 
C  4.002109928615799  1.0266015720294808  -0.5841509192151464 
H  4.107662010649782  1.9497500235340979  -0.5509409137511794 
C  5.064074284688458  0.24013505780286404  -0.9174933534047739 
H  5.887919112515904  0.6223994081839559  -1.1198706151950217 
C  4.906455598728157  -1.1144519493919762  -0.9522335286356948 
H  5.624609453942315  -1.6502881437230374  -1.200590656751398 
C  3.7086649061399415  -1.7044119409167686  -0.6267727550405561 
H  3.627347016484192  -2.6304849041000775  -0.6249376302976629 
C  2.6154368748464334  -0.9032105388003815  -0.29864239246975327 
C  0.8755246527797881  -2.2411766074620694  -1.2361600928963459 
H  0.7477313146461124  -1.607625461256297  -1.9445627664302783 
H  0.0476667225766334  -2.6957165017311855  -1.0616196909328288 
H  1.5427176049137166  -2.8806231747739277  -1.4945155692770726 
C  1.514248009086508  -2.5559826021886884  1.0939785316907271 
H  2.1029866154120898  -3.246935996827794  0.7828789337184499 
H  0.6650878876151785  -2.9391761973705357  1.324923474727872 
H  1.8964651750224277  -2.133610699549326  1.8661128360217425 
C  0.9236328352996532  2.268757202968109  -1.610961064497779 
C  -0.1690846052464885  3.1122179188216386  -1.718862065133268 
H  -0.6728567765326579  3.301193386015405  -0.9596760521980224 
C  -0.5302280375494621  3.676704233564611  -2.9240213416491967 
H  -1.2620332096882072  4.2482855147376135  -2.9771738490559576 
C  0.20350487560837283  3.382492154425795  -4.041672809969165 
H  -0.03703414030588803  3.755328975284825  -4.8592225068284725 
C  1.2838337702653373  2.548632970291406  -3.972957961471847 
H  1.770816088312503  2.3630900722525467  -4.74373225716207 
C  1.6633439571485973  1.9755362082880674  -2.764129553701257 
H  2.3969912123772037  1.4064008345416343  -2.7209692565980523 
C  2.0484026876715653  2.8474322098495755  1.0176390373827215 
C  2.058345981149598  4.163871592378305  0.6054694933329586 
H  1.6392652088444686  4.404543046196276  -0.18843708656249972 
C  2.6930486561202573  5.126077385898226  1.3754294048230384 
H  2.675841411053118  6.016924260326558  1.1111737387750436 
C  3.348853410071234  4.764710872236267  2.5319941144260505 
H  3.7876777802736683  5.409098706485649  3.0396559617100847 
C  3.3540649013522525  3.456187303121693  2.9328215953081482 
H  3.8056790087339794  3.2116104473798677  3.708018286251321 
C  2.696458356430757  2.50107046229693  2.1962234806965455 
H  2.684809313421605  1.618061903653096  2.4890820389780313 
Br  -1.5839191898578664  1.5839191898578664  0.0 
C  -1.2937473829822488  -1.2398794889499034  -0.4598005675376139 
C  -1.601562203225019  -1.4938654694550033  -1.7919791134336869 
H  -1.1309417375171225  -1.0428217585005106  -2.480879663633267 
C  -2.60218398542082  -2.411889969420291  -2.121542410022959 
H  -2.8231586547736818  -2.5626138747145775  -3.03270050271447 
C  -3.2683208079706407  -3.09759503004543  -1.143064365570095 
H  -3.9596020908062854  -3.707191723557817  -1.3683280760515548 
C  -2.9347449854640226  -2.896087320001541  0.14198826503765638 
H  -3.3668350933519986  -3.405606940434718  0.8171022443470677 
C  -1.9675509241539992  -1.9516175659140573  0.5112421903797603 
H  -1.7755298364628027  -1.8022912010877177  1.4301324877763764 

-Ni 0
lanl2dz
F 1 1.0
3.130 1.0
****
-H 0
6-31g(d,p)
****
-P 0
6-31+g(d)
****
-N 0
6-31+g(d)
****
-C 0
6-31g(d)
****
-Br 0
6-31+g(d)
****

-Ni 0
lanl2dz


