%chk=UHIRINAW_PN_Ni_gaussain.chk
%nprocshared=32
%mem=64GB
#p opt rwb97xd/gen pseudo=read

This Gaussian input file was generated using the DART python program. This file was generated on the 2023-08-13 at 16:51:13

0 1
Ni  0.0  0.0  0.0 
P  1.4724259769170063  -1.3827732071818573  9.0034179149005e-17 
N  1.4724259769170063  1.3827732071818573  -1.6934087821219814e-16 
C  2.968385034807281  -0.47147761405407246  -0.41242319171207836 
C  4.213481505709131  -1.0144381777246259  -0.7245355023413907 
H  4.323405374441189  -1.9671882333067598  -0.725737447106241 
C  5.2599031878837765  -0.16644038682890963  -1.049652588497668 
H  6.120513714548276  -0.5385390016470445  -1.249816102267603 
C  5.0700170896247325  1.1764822814404217  -1.0627658160307174 
H  5.800029486856829  1.7615550546168837  -1.2811038337350316 
C  3.8595248161422253  1.717242791635683  -0.7946669043348059 
H  3.7220655572118275  2.6654857306728683  -0.8522705561324844 
C  2.780377077406838  0.8860613664890482  -0.37646579664432617 
C  1.5195959785472781  -1.7873068661323608  1.7760342901313553 
C  2.6699381293663293  -2.341955116486501  2.365146999575095 
H  3.409406440830132  -2.6232517622269356  1.8214551811374193 
C  2.6805283736569123  -2.516829458673692  3.7462502836094465 
H  3.4553134402897276  -2.8948537921544704  4.167306816416158 
C  1.610126018985468  -2.1183039397108954  4.544374922904156 
H  1.6449115936269223  -2.2529360102724962  5.494874217681989 
C  0.5410339377708413  -1.5657112795180614  3.9350080598526596 
H  -0.2079548452706248  -1.2949291888214227  4.4720738120991435 
C  0.456559292526054  -1.3840085182156037  2.586039460942417 
H  -0.3051676657447353  -0.9748038402097301  2.1710171572746964 
C  1.6477237159837048  -2.924350563416857  -0.9712696780099914 
C  1.610762873946393  -2.8222100863910944  -2.3304452071852553 
H  1.5314227344620361  -1.9499537585019082  -2.7238659116784083 
C  1.6590328877359573  -3.9208412987329213  -3.1221826857961408 
H  1.6549762809843738  -3.8371951307284604  -4.078673497314917 
C  1.7457479791853263  -5.162195416736344  -2.5701496191861026 
H  1.7777080485113934  -5.951337410038278  -3.1157882985116556 
C  1.76177594163216  -5.297441915604471  -1.2038015123832422 
H  1.8457414975324653  -6.170916740490309  -0.8140442472642794 
C  1.6792850596757827  -4.196773449441579  -0.3876984478205005 
H  1.63900332845406  -4.289379669561347  0.5675597843475999 
P  1.3139235454416773  2.6720542264701743  0.917019461363444 
C  0.005348946834639268  2.4755754159255985  2.0865451373909143 
H  0.15938226132609223  1.685623777922577  2.6095432613293474 
H  -0.8298515926238501  2.3938483984992778  1.6215869419465736 
H  -0.024661301293079863  3.2423680030924635  2.6645062894359897 
C  0.9862438631902785  4.1762252786696665  -0.03440692652198517 
H  1.6851782277706802  4.304436346890546  -0.6791978119990271 
H  0.9561184535880496  4.930433904193636  0.5594793832053458 
H  0.14425710650257084  4.0914795124143115  -0.48787885141295617 
C  2.7898884934436494  2.976844645326309  1.9407176604646743 
H  3.5547666487442844  3.095951346370698  1.3714817679646816 
H  2.9373541631092346  2.227052969717393  2.521507682294985 
H  2.656089209851452  3.7686590797637876  2.4669387576535553 
Br  -1.5839191898578664  1.5839191898578664  0.0 
C  -1.2937473829822488  -1.2398794889499034  -0.4598005675376139 
C  -1.601562203225019  -1.4938654694550033  -1.7919791134336869 
H  -1.1309417375171225  -1.0428217585005106  -2.480879663633267 
C  -2.60218398542082  -2.411889969420291  -2.121542410022959 
H  -2.8231586547736818  -2.5626138747145775  -3.03270050271447 
C  -3.2683208079706407  -3.09759503004543  -1.143064365570095 
H  -3.9596020908062854  -3.707191723557817  -1.3683280760515548 
C  -2.9347449854640226  -2.896087320001541  0.14198826503765638 
H  -3.3668350933519986  -3.405606940434718  0.8171022443470677 
C  -1.9675509241539992  -1.9516175659140573  0.5112421903797603 
H  -1.7755298364628027  -1.8022912010877177  1.4301324877763764 

-Ni 0
lanl2dz
F 1 1.0
3.130 1.0
****
-C 0
6-31g(d)
****
-N 0
6-31+g(d)
****
-H 0
6-31g(d,p)
****
-Br 0
6-31+g(d)
****
-P 0
6-31+g(d)
****

-Ni 0
lanl2dz


