%chk=REZEZABE_PN_Ni_gaussain.chk
%nprocshared=32
%mem=64GB
#p opt rwb97xd/gen pseudo=read

This Gaussian input file was generated using the DART python program. This file was generated on the 2023-08-13 at 16:51:13

0 1
Ni  0.0  0.0  0.0 
P  1.3877022996666106  1.4677814304248433  0.0 
N  1.3877022996666106  -1.4677814304248433  0.0 
C  2.6207938617169786  -1.3785488428711976  0.33893146050301287 
H  3.1554176213348817  -2.1102826846661085  0.1309909150961831 
C  3.288471800830516  -0.2668133479428514  1.0136480001976862 
C  2.8359075965155682  1.0636867520854936  1.0092816748145719 
C  3.577661415905439  2.0396061739474987  1.668976288596641 
H  3.283723272785611  2.922422006155528  1.6612844473270802 
C  4.747197716048311  1.7101921583606883  2.334914798508125 
H  5.2220406416674425  2.3666643823764284  2.7899768328345305 
C  5.206654064003459  0.4129825632993258  2.324287437383697 
H  5.99346612579472  0.19571315697654934  2.7690615424032634 
C  4.4984182426629085  -0.5709285218695287  1.6524533374364236 
H  4.828505159929231  -1.4395509363328127  1.6264835830749143 
C  0.9532678101570842  3.1953349220002614  0.31722840047856105 
C  0.6081185573695873  3.6115753630740817  1.6128247992520919 
H  0.6448497018851616  3.0131011851130336  2.3219691931074067 
C  0.2134884851578278  4.915633436929111  1.8234784394287096 
H  0.0008162394350392788  5.196436328597185  2.6849605297417227 
C  0.13101698088108593  5.81195742817841  0.7732866028134654 
H  -0.14202697535464504  6.68689973115351  0.9286695311800253 
C  0.4587310521689105  5.404327805948606  -0.5066136739896854 
H  0.4050536106570761  6.005607772915178  -1.2133830802301036 
C  0.8674180010406306  4.093269537931816  -0.737013491018142 
H  1.0835264202349686  3.8190352196222475  -1.6000533219730237 
C  2.0451018467445246  1.4062558870925086  -1.686574831728345 
C  3.3737324149354997  1.7004211667792979  -1.9595141500673428 
H  3.9404807897459726  1.9551764268262728  -1.26781084869594 
C  3.8654258236840335  1.6188511438056832  -3.254232139880334 
H  4.756892675577962  1.8138390889230709  -3.4302258989549737 
C  3.0179167125473327  1.2447735743401291  -4.281209441753688 
H  3.341543353427458  1.1860272867712491  -5.1512464587877655 
C  1.699849571917089  0.9585303835686045  -4.023738300598426 
H  1.1388952899386848  0.7048419172332441  -4.719089949462903 
C  1.1999617771588784  1.044897503612702  -2.7332747082305215 
H  0.3031692082222963  0.862599346371026  -2.5674856550140026 
C  1.010209939203631  -2.6956534266513823  -0.6818763587885645 
C  0.5971598147635229  -2.5911702578218043  -2.0289982508723465 
H  0.5556147028193836  -1.759588382142463  -2.4451263534022933 
C  0.2553149402863819  -3.7325479692942083  -2.721540698342342 
H  0.010956143018066467  -3.6891621703734745  -3.617489854628349 
C  0.28400392869459834  -4.927603666035302  -2.063138842610773 
H  0.04234069981076516  -5.696769688712958  -2.527195696200577 
C  0.6513634298864964  -5.041610657492856  -0.7516318876986392 
H  0.6523910039790453  -5.875397786579077  -0.34211634774729227 
C  1.0329821642198191  -3.8878722262130414  -0.01101842320191615 
C  1.3961168498124297  -3.982368226860667  1.4143086185611993 
H  0.9525929962294752  -4.7392986335074  1.805999109633612 
H  1.1214750096235688  -3.181497555224117  1.866733581323098 
H  2.347078421765022  -4.089203312623138  1.4970854457509852 
Br  -1.5839191898578664  1.5839191898578664  0.0 
C  -1.2937473829822488  -1.2398794889499034  -0.4598005675376139 
C  -1.601562203225019  -1.4938654694550033  -1.7919791134336869 
H  -1.1309417375171225  -1.0428217585005106  -2.480879663633267 
C  -2.60218398542082  -2.411889969420291  -2.121542410022959 
H  -2.8231586547736818  -2.5626138747145775  -3.03270050271447 
C  -3.2683208079706407  -3.09759503004543  -1.143064365570095 
H  -3.9596020908062854  -3.707191723557817  -1.3683280760515548 
C  -2.9347449854640226  -2.896087320001541  0.14198826503765638 
H  -3.3668350933519986  -3.405606940434718  0.8171022443470677 
C  -1.9675509241539992  -1.9516175659140573  0.5112421903797603 
H  -1.7755298364628027  -1.8022912010877177  1.4301324877763764 

-Ni 0
lanl2dz
F 1 1.0
3.130 1.0
****
-C 0
6-31g(d)
****
-N 0
6-31+g(d)
****
-H 0
6-31g(d,p)
****
-Br 0
6-31+g(d)
****
-P 0
6-31+g(d)
****

-Ni 0
lanl2dz


