%chk=YETUCOTE_PN_Pd_gaussain.chk
%nprocshared=32
%mem=64GB
#p opt rwb97xd/gen pseudo=read

This Gaussian input file was generated using the DART python program. This file was generated on the 2023-10-04 at 09:55:46

0 1
Pd  0.0  0.0  0.0 
P  1.5155427583872387  -1.481630907986196  2.3101871038538527e-16 
C  1.1668105246998555  -2.46545338505724  2.5534271681012024 
H  0.5640542992586116  -1.7361108820253934  2.6414211222291226 
C  1.8062307118068817  -2.6898328294978646  1.33783824530182 
C  1.4058200259636153  -3.304359652671077  3.642964089212149 
H  0.9647196681917144  -3.1499563807314157  4.470594637215176 
C  2.9189800874742806  -4.588849247712471  2.3076620490431283 
H  3.5176486770967283  -5.321758644477104  2.2248167357564292 
C  2.2871729151200255  -4.3601453288258405  3.509158742524906 
H  2.4567155109455174  -4.929979776426243  4.25014837168896 
C  2.6919097616643217  -3.767510597552955  1.2230975424826624 
H  3.136411996935857  -3.9327627319949836  0.3990599614822646 
N  1.5155427583872387  1.481630907986196  -2.3695860612956595e-16 
C  2.8213889956217453  0.9849191587690576  0.0857713407274519 
C  1.3479627532297167  2.779113394776968  -0.05048592222232675 
H  0.4576475994590383  3.1057633737908446  -0.12390886261931244 
C  2.4023012569669384  3.738821569961208  -0.0014285270434652737 
C  3.940246404655218  1.8468976974969356  0.17442531426200855 
C  3.723370491864918  3.2772315907608207  0.12636782543922978 
C  5.2144107748952795  1.2796049524080688  0.316009667141664 
H  5.973241046984512  1.8460615243357772  0.3916941456091153 
C  2.125501202090411  5.124859255818619  -0.05035963170494726 
H  1.2303377700678144  5.430920227249315  -0.14387851608901076 
C  5.382758692081227  -0.08165521308167052  0.345391134599935 
H  6.253916004519757  -0.4472263597690653  0.4520407182583472 
C  4.762547936472822  4.224444282150676  0.19217858358859902 
H  5.66556201066615  3.936865130215238  0.27067083276542775 
C  3.1597369599768  6.028701678909105  0.03721668547669814 
H  2.9809802874745577  6.961405814298857  0.02574071655119375 
C  4.466626507003356  5.568555885293984  0.14268478724725606 
H  5.17555875209899  6.199900429308258  0.1811737286082524 
C  1.7456527966862132  -2.4322657742056055  -1.5462716777468641 
C  1.2125244287855348  -3.713707923371199  -1.6724744181348266 
H  0.7782943470751842  -4.11665171442065  -0.9301837827415648 
C  1.310255508733006  -4.409960484950192  -2.875318047417964 
H  0.9514605031803259  -5.286437145230622  -2.94665967603774 
C  2.347564739386831  -1.8467660688983771  -2.658537638890847 
H  2.7080882743454504  -0.9706912732097245  -2.5931019979905554 
C  2.424639706935446  -2.5370693519138054  -3.867826507125206 
H  2.818576212744758  -2.1217411674900672  -4.625597276298856 
C  1.9292959082950518  -3.8245773471356292  -3.9653025728459426 
H  2.0140798118634087  -4.306573994310496  -4.778702696897974 
C  3.005676307056357  -0.42220447692349916  0.09704789691996318 
C  4.283587307715073  -0.9359549770629649  0.22050986678069873 
H  4.415634097899797  -1.8765533693401486  0.21986982967792731 
Br  -1.654629867976521  1.654629867976521  0.0 
C  -1.352040782177733  -1.3199206589279684  -0.4819701001757076 
C  -1.6380700204479186  -1.599217458033982  -1.8139382277462257 
H  -1.1579680913617836  -1.159339363685303  -2.503515938957912 
C  -2.63068216563725  -2.52632649780156  -2.142289956238523 
H  -2.8368222554424674  -2.694399528648736  -3.0538898079700485 
C  -3.3101544432602585  -3.1961573187854975  -1.1619874135498987 
H  -3.9960123560788676  -3.811990145619169  -1.3868663427944008 
C  -2.9974710358883443  -2.9701089012107795  0.12423560353005347 
H  -3.438659168087169  -3.468581175155742  0.8017084178296768 
C  -2.0389854250767776  -2.015940632791841  0.4912562833419403 
H  -1.8619130127668426  -1.8492165108145995  1.4101568590026907 

-Pd 0
lanl2dz
F 1 1.0
1.472 1.0
****
-P 0
6-31+g(d)
****
-N 0
6-31+g(d)
****
-C 0
6-31g(d)
****
-H 0
6-31g(d,p)
****
-Br 0
6-31+g(d)
****

-Pd 0
lanl2dz


