%chk=UZEHEFAS_PN_Ni_gaussain.chk
%nprocshared=32
%mem=64GB
#p opt rwb97xd/gen pseudo=read

This Gaussian input file was generated using the DART python program. This file was generated on the 2023-10-04 at 16:41:16

0 1
Ni  0.0  0.0  0.0 
P  1.490640504950808  1.3631180744895142  1.1419586815944614e-15 
N  1.490640504950808  -1.3631180744895142  2.7755575615628914e-16 
N  3.7117156490430148  -1.7002164804160023  0.7395996748360871 
N  2.834009406251927  0.44970840125465283  0.4942839506377397 
C  2.669509956933739  -0.9280171789034046  0.4106769117465274 
C  1.3081652730770603  -2.832773233122957  -0.04663672860237021 
H  0.6354424593747182  -3.0522235548509746  -0.7110913788366064 
H  0.9925615857133525  -3.1455112438485857  0.8160109742113661 
C  2.6013729119174274  -3.536479953730585  -0.3930948129597767 
H  2.466266928297482  -4.496852715635497  -0.38578513572901924 
H  2.8911315348146394  -3.2767305221689806  -1.2819749979454498 
C  3.642680419611297  -3.162711481626065  0.6076080518712694 
H  3.426972302611029  -3.5584456004051868  1.4669967564132314 
H  4.5046526112453185  -3.5061525185848934  0.3248012538937848 
C  4.933709037734169  -1.1985520921302761  1.395259662574435 
H  5.671666956386903  -1.2382267182775761  0.7659487264404363 
H  5.151590265511398  -1.7725965858862853  2.1471220899976253 
C  4.775262408866044  0.2074114196643464  1.878958628153716 
H  5.64340249187213  0.5769904931343126  2.106698555990968 
H  4.222466916992616  0.21978699835830318  2.6757845120307477 
C  4.133850947942414  1.0392241813171679  0.7992355722975508 
H  4.0227336258578585  1.9531988899766302  1.1029111107651823 
H  4.692631553746819  1.0444695156237191  0.005922783389606223 
C  2.0492361223100763  2.2779776624727655  -1.4616569332583427 
C  2.732622751321645  3.491402061250132  -1.4161906409089369 
H  2.894011200074524  3.8992155077912054  -0.5964073698979651 
C  3.180613801609418  4.102803458236311  -2.5937871297901594 
H  3.620531601973462  4.9212364178445975  -2.5583807807876933 
C  2.961482857123043  3.4798071889527193  -3.8103250567070543 
H  3.261886538185564  3.8757452482452877  -4.596204851337084 
C  2.29863129239499  2.2718709464400266  -3.8562926231196903 
H  2.1651641107310295  1.8529306978384055  -4.674461236255342 
C  1.8324186669886942  1.675309962312122  -2.7003503796973916 
H  1.3719536436437512  0.8682819318078852  -2.748257897441421 
C  1.2846813162288697  2.5379197112440712  1.3631660452270158 
C  0.8698973548550442  3.8572039894409365  1.1536658096910695 
H  0.7167658117282527  4.162614326073666  0.28829801691304474 
C  0.6843418839688065  4.713868699456842  2.2316914085696578 
H  0.4413624986543121  5.599839762860338  2.089913366814698 
C  0.8638583571246385  4.238843720243289  3.519910863860141 
H  0.7356824220534502  4.805487728899155  4.246399278855906 
C  1.234104664836742  2.9179588910444005  3.7293359808298505 
H  1.3278292380889365  2.5977749112644766  4.5958089425897635 
C  1.4639161684812128  2.078650025282016  2.6662364743652036 
H  1.7395826781501238  1.203875926606404  2.815880257173662 
Br  -1.5839191898578664  1.5839191898578664  0.0 
C  -1.2937473829822488  -1.2398794889499034  -0.4598005675376139 
C  -1.601562203225019  -1.4938654694550033  -1.7919791134336869 
H  -1.1309417375171225  -1.0428217585005106  -2.480879663633267 
C  -2.60218398542082  -2.411889969420291  -2.121542410022959 
H  -2.8231586547736818  -2.5626138747145775  -3.03270050271447 
C  -3.2683208079706407  -3.09759503004543  -1.143064365570095 
H  -3.9596020908062854  -3.707191723557817  -1.3683280760515548 
C  -2.9347449854640226  -2.896087320001541  0.14198826503765638 
H  -3.3668350933519986  -3.405606940434718  0.8171022443470677 
C  -1.9675509241539992  -1.9516175659140573  0.5112421903797603 
H  -1.7755298364628027  -1.8022912010877177  1.4301324877763764 

-Ni 0
lanl2dz
F 1 1.0
3.130 1.0
****
-H 0
6-31g(d,p)
****
-P 0
6-31+g(d)
****
-N 0
6-31+g(d)
****
-C 0
6-31g(d)
****
-Br 0
6-31+g(d)
****

-Ni 0
lanl2dz


