%chk=YOCOYUWA_PN_Ni_gaussain.chk
%nprocshared=32
%mem=64GB
#p opt rwb97xd/gen pseudo=read

This Gaussian input file was generated using the DART python program. This file was generated on the 2023-08-13 at 16:51:13

0 1
Ni  0.0  0.0  0.0 
P  1.4544958757246442  -1.401621114103237  3.0212256306950837e-16 
N  1.4544958757246444  1.401621114103237  -3.936936860254189e-16 
N  1.4467259925579046  2.7476354906111538  0.2377915624019947 
H  0.6622034272051744  3.163669677120312  0.3210880215587405 
C  2.7015140011506813  3.1973412446538787  0.4687418346959786 
C  3.558872393427392  2.1133580057369366  0.36362392499524515 
H  4.492875349996962  2.112108099480265  0.46312058249524574 
C  2.727734326076958  1.008266451810821  0.07348454393476954 
C  3.002247007172578  4.672459252078326  0.7018675802951516 
C  1.7667013024959903  5.3946022726246365  1.286493272111306 
H  1.027082036007552  5.329364756522789  0.6633310403193005 
H  1.9803299096792277  6.329687444225058  1.4366392012801097 
H  1.5171455915940757  4.981850271260745  2.1289652968850423 
C  3.3855814026652853  5.331808105845614  -0.61790785524987 
H  2.643357531962505  5.265804455451699  -1.2402896543842028 
H  4.1603735980605805  4.883094920326581  -0.9912617103202701 
H  3.5966051701921704  6.264086869950871  -0.46359072873069584 
C  4.174794519478868  4.768684432794364  1.7040726970155389 
H  4.381767095195997  5.701351554348381  1.8703521403426082 
H  4.954615458425785  4.326073477695479  1.33465642015916 
H  3.9242927051574927  4.339412007496351  2.5373561157276012 
C  3.0237196920123726  -0.44548409781875575  -0.1706664597571797 
H  3.682056901069308  -0.7671834504205378  0.4796176594605145 
H  3.391360629830835  -0.5668464176984996  -1.0693739806745202 
C  1.4816485496228071  -2.1554255369739517  1.6555644337689785 
C  2.6685853739807754  -2.729570433838516  2.132503163992704 
H  3.444509471486197  -2.726944267634995  1.602652413156684 
C  2.6842236906207217  -3.308903141393741  3.412069007163512 
H  3.4770847885947713  -3.6923572179569843  3.7390440987017244 
C  1.5526370144182278  -3.32200015799494  4.187101285457273 
H  1.5735365210684593  -3.707994692863335  5.044447895454381 
C  0.39346282001344957  -2.77121718445653  3.71262566639316 
H  -0.377737267768699  -2.790148345476444  4.250077790537469 
C  0.3292382840310091  -2.1807943186241543  2.4474475846670605 
H  -0.47523212969055706  -1.8118625047431667  2.1325251971599934 
C  1.5622860921416994  -2.808946999217374  -1.1490546428836714 
C  0.5839942675738451  -3.8013418311758964  -1.029493681505232 
H  -0.11181903091748024  -3.7033849806272783  -0.4056860436285932 
C  0.6397177693116244  -4.944061603219819  -1.8402864256353075 
H  -0.01707922067406198  -5.609508203313846  -1.7541517266513602 
C  1.6566036577110892  -5.0913414978524525  -2.764697904691619 
H  1.677341059956097  -5.848968540792239  -3.3210064197751663 
C  2.636725728347903  -4.138294442868084  -2.872161236280736 
H  3.348394093308129  -4.257654788054548  -3.4754440773360984 
C  2.574645833753932  -2.987441652645927  -2.081991544426455 
H  3.2298222969060886  -2.3222301588846213  -2.184541438133421 
Br  -1.5839191898578664  1.5839191898578664  0.0 
C  -1.2937473829822488  -1.2398794889499034  -0.4598005675376139 
C  -1.601562203225019  -1.4938654694550033  -1.7919791134336869 
H  -1.1309417375171225  -1.0428217585005106  -2.480879663633267 
C  -2.60218398542082  -2.411889969420291  -2.121542410022959 
H  -2.8231586547736818  -2.5626138747145775  -3.03270050271447 
C  -3.2683208079706407  -3.09759503004543  -1.143064365570095 
H  -3.9596020908062854  -3.707191723557817  -1.3683280760515548 
C  -2.9347449854640226  -2.896087320001541  0.14198826503765638 
H  -3.3668350933519986  -3.405606940434718  0.8171022443470677 
C  -1.9675509241539992  -1.9516175659140573  0.5112421903797603 
H  -1.7755298364628027  -1.8022912010877177  1.4301324877763764 

-Ni 0
lanl2dz
F 1 1.0
3.130 1.0
****
-C 0
6-31g(d)
****
-N 0
6-31+g(d)
****
-H 0
6-31g(d,p)
****
-Br 0
6-31+g(d)
****
-P 0
6-31+g(d)
****

-Ni 0
lanl2dz


