%chk=GEYUKETI_PN_Ni_gaussain.chk
%nprocshared=32
%mem=64GB
#p opt rwb97xd/gen pseudo=read

This Gaussian input file was generated using the DART python program. This file was generated on the 2023-08-13 at 16:51:13

0 1
Ni  0.0  0.0  0.0 
P  1.3583170046053312  1.4950166938867273  1.8583219097833416e-16 
C  1.6020287205971684  -1.6301113994013021  -1.4382689943227893 
H  0.7482393268008826  -1.7331520447866784  -1.9298230467316364 
H  2.173621980695292  -2.416946198510994  -1.6237800018679518 
C  2.324879041473678  -0.3110780246814  -1.857008615070304 
H  3.1362540598771913  -0.5023701160469483  -2.390463772784363 
H  1.7228722027265704  0.27421293800687163  -2.383374623753582 
C  2.692681506912785  0.34661410278490346  -0.49923906470993706 
H  3.597704625024946  0.7720583353482287  -0.4998478841915978 
C  2.586368549526072  -0.8194572441963801  0.4523508516095755 
H  3.3730001425883938  -1.4163302782225866  0.3775951290956123 
H  2.5014241574199936  -0.5114083328476392  1.3892690809479737 
N  1.3583170046053312  -1.4950166938867273  -2.0816681711721685e-16 
C  1.097679731990093  -2.7901812749363537  0.7225977927715055 
H  0.9185634393149611  -2.5830204410363504  1.6743352316674416 
H  0.2740133814754422  -3.1927363115863985  0.34932219016991695 
C  3.231881922169904  -3.8303116436195923  1.5889208719831123 
H  3.320866701260559  -3.125657331525457  2.221169477784137 
C  4.145202493090052  -4.879802988041248  1.5812031833313482 
H  4.861088908858569  -4.8846602515284685  2.2066619403326353 
C  4.021405256681252  -5.921654096707206  0.6692641000428364 
H  4.631304067167484  -6.649082482254315  0.6825224886256941 
C  3.0045021131149956  -5.882115969647014  -0.2522827642639493 
H  2.9380543355138204  -6.5733689631592735  -0.9019732227225983 
C  2.091935601542716  -4.877174923741989  -0.25539984817919914 
H  1.3815455853696663  -4.889416355610166  -0.8868581225469494 
C  2.184744435816641  -3.8140511362290033  0.6652416524630336 
C  3.047347109819181  2.101913381870296  2.1494517007358005 
H  3.559239916826376  1.3516581007175743  1.8720000342481813 
C  3.434605886865175  2.8033016735781935  3.2573981993791055 
H  4.2054794247813305  2.5347321842595543  3.7444435237051183 
C  2.717491109104675  3.8879757488784286  3.6627356463157312 
H  2.97345210736286  4.357161703703055  4.448123192159207 
C  1.5939062356680518  4.317791200189159  2.9212501845573695 
H  1.1042076553034157  5.089400955262169  3.181842943982946 
C  1.2244518299348996  3.5800075423141173  1.798158003898591 
H  0.47555037859327154  3.8517385113803266  1.2794935009405062 
C  1.9378395262398826  2.457233277074254  1.4337835206045912 
C  0.10625344033554707  2.7581604686164276  -2.152850216663894 
H  -0.6049990121507125  2.144597380156695  -2.013432228900299 
C  0.007044123051072715  3.681571341314413  -3.1978818197970766 
H  -0.7729881340707685  3.7260105708371825  -3.739900724198829 
C  1.0806485356688225  4.534338447670616  -3.421855852945111 
H  1.0424814373261417  5.161718401911491  -4.133779841599002 
C  2.2007625664496553  4.478354133018984  -2.6225893863890994 
H  2.9312148505036735  5.063178756433017  -2.7865676488780933 
C  2.2568176975763903  3.581713884464297  -1.593224943178546 
H  3.0344594797019  3.5491692278066456  -1.0484592650969347 
C  1.1970251032058274  2.7116547872522663  -1.3218361367109146 
Br  -1.5839191898578664  1.5839191898578664  0.0 
C  -1.2937473829822488  -1.2398794889499034  -0.4598005675376139 
C  -1.601562203225019  -1.4938654694550033  -1.7919791134336869 
H  -1.1309417375171225  -1.0428217585005106  -2.480879663633267 
C  -2.60218398542082  -2.411889969420291  -2.121542410022959 
H  -2.8231586547736818  -2.5626138747145775  -3.03270050271447 
C  -3.2683208079706407  -3.09759503004543  -1.143064365570095 
H  -3.9596020908062854  -3.707191723557817  -1.3683280760515548 
C  -2.9347449854640226  -2.896087320001541  0.14198826503765638 
H  -3.3668350933519986  -3.405606940434718  0.8171022443470677 
C  -1.9675509241539992  -1.9516175659140573  0.5112421903797603 
H  -1.7755298364628027  -1.8022912010877177  1.4301324877763764 

-Ni 0
lanl2dz
F 1 1.0
3.130 1.0
****
-C 0
6-31g(d)
****
-N 0
6-31+g(d)
****
-H 0
6-31g(d,p)
****
-Br 0
6-31+g(d)
****
-P 0
6-31+g(d)
****

-Ni 0
lanl2dz


