%chk=CIBIJOYE_PN_Pd_gaussain.chk
%nprocshared=32
%mem=64GB
#p opt rwb97xd/gen pseudo=read

This Gaussian input file was generated using the DART python program. This file was generated on the 2023-10-04 at 16:41:16

0 1
Pd  0.0  0.0  0.0 
P  1.4991070592189208  -1.4982583305291501  2.0748311571175989e-16 
N  1.4991070592189208  1.4982583305291506  -1.8348372687783814e-16 
N  2.7955160236496734  0.8711426850795699  -0.03424914854369548 
C  1.4464729518147108  2.5069000708799454  -1.097855751162194 
H  2.1110655553943634  3.2085083306709947  -0.9296958835950282 
H  0.5521086941637618  2.9066884103103376  -1.1341136922506805 
H  1.6433668520736802  2.0696377499231704  -1.952834086976803 
C  1.3283773038250395  2.1645154302960847  1.3233357728231172 
H  1.4151334596574716  1.4994915591135352  2.0375676120620003 
H  0.4423633174223145  2.57965688976678  1.3685743020576402 
H  2.0179172789530813  2.8533743800310667  1.43403283723971 
C  1.744573578599578  -2.9503588799928853  -1.0198107677948298 
C  1.7902319433718907  -4.017032745530858  -0.1913708132389132 
C  1.6147990518399644  -3.7027196458441836  1.2631425541572556 
C  1.442823562532368  -2.403754133459782  1.5546598241659788 
C  2.968228794190868  -0.49659463247384417  -0.058519687552431914 
C  4.322143097672674  -0.722313998159307  -0.08623641142003349 
H  4.747373810999873  -1.5716931766822464  -0.10416910600135412 
C  4.964739416430071  0.5195327095061694  -0.08268454150865019 
H  5.904247509701161  0.6609150170052948  -0.10377069346725495 
C  4.011380006001842  1.4909432835998744  -0.042876111661595065 
H  4.16403754283776  2.4276528792704273  -0.023091778822273167 
C  1.851811179190574  -2.8706427572346587  -2.506808349094785 
H  1.9481611040727507  -3.77257007007846  -2.8768649857351254 
H  2.633825590051128  -2.332192929483606  -2.7489223598444648 
H  1.0427155428271329  -2.453328004324739  -2.8700380122851645 
C  2.0166159027124  -5.429629543342435  -0.6116216428226231 
H  2.1230576547079973  -5.468736581031529  -1.5847349831048854 
H  1.2489555977892168  -5.976719953786213  -0.34441281241890953 
H  2.8267324406804244  -5.7726890041354695  -0.1802159622027341 
C  1.6899029323241217  -4.795025933520226  2.2895005234056174 
H  1.512334895058555  -4.422007747262173  3.178210034360938 
H  2.583777006190567  -5.196271091147802  2.2764000062463268 
H  1.0222882470396553  -5.482026021573447  2.084928455401688 
C  1.2685583131552296  -1.7275026190482698  2.87141441486074 
H  1.070250953920678  -2.397569746020582  3.5587325410763193 
H  0.5287211118901052  -1.0884576723321393  2.815530860027689 
H  2.0924253276007043  -1.2535789100779882  3.1064319473653987 
Br  -1.654629867976521  1.654629867976521  0.0 
C  -1.352040782177733  -1.3199206589279684  -0.4819701001757076 
C  -1.6380700204479186  -1.599217458033982  -1.8139382277462257 
H  -1.1579680913617836  -1.159339363685303  -2.503515938957912 
C  -2.63068216563725  -2.52632649780156  -2.142289956238523 
H  -2.8368222554424674  -2.694399528648736  -3.0538898079700485 
C  -3.3101544432602585  -3.1961573187854975  -1.1619874135498987 
H  -3.9960123560788676  -3.811990145619169  -1.3868663427944008 
C  -2.9974710358883443  -2.9701089012107795  0.12423560353005347 
H  -3.438659168087169  -3.468581175155742  0.8017084178296768 
C  -2.0389854250767776  -2.015940632791841  0.4912562833419403 
H  -1.8619130127668426  -1.8492165108145995  1.4101568590026907 

-Pd 0
lanl2dz
F 1 1.0
1.472 1.0
****
-H 0
6-31g(d,p)
****
-P 0
6-31+g(d)
****
-N 0
6-31+g(d)
****
-C 0
6-31g(d)
****
-Br 0
6-31+g(d)
****

-Pd 0
lanl2dz


