%chk=KAWEBEWI_PN_Pd_gaussain.chk
%nprocshared=32
%mem=64GB
#p opt rwb97xd/gen pseudo=read

This Gaussian input file was generated using the DART python program. This file was generated on the 2023-10-04 at 09:55:46

0 1
Pd  0.0  0.0  0.0 
N  1.4123038837304098  1.5803473478953922  -2.518353623246035e-15 
P  1.4123038837304103  -1.5803473478953922  -1.1102230246251565e-16 
C  3.071119535799803  -1.0417394455671105  0.4745379858337915 
C  3.513753965788441  0.1930004188042529  -0.0026288704343572777 
C  4.806229960880604  0.6035053314514327  0.3123908413347604 
H  5.128341377051683  1.4034987327019066  -0.03759847782793206 
C  5.623586516759553  -0.15570516844141702  1.1381892352628453 
H  6.475415166601849  0.14311072834791294  1.3599496265275928 
C  5.16083656788472  -1.3598029590531797  1.6276938067024087 
H  5.704673131585243  -1.8740157054359394  2.1786361389295896 
C  3.8961019277869213  -1.8024454584578762  1.303637904337641 
H  3.5915194165866753  -2.6122649843389136  1.6398009888260692 
C  1.6293433717332542  -2.286163086116148  -1.6703992499781064 
C  0.507200932729448  -2.68237634950655  -2.403393265301675 
H  -0.34605546638799  -2.4939556770534015  -2.0836594579595946 
C  0.6633587780022328  -3.3473634622444792  -3.5952338575170364 
H  -0.08613236465696228  -3.6325563602489708  -4.067365150700649 
C  1.9223971508308328  -3.5972200020272354  -4.09812091767367 
H  2.0200125686243906  -4.043775343762597  -4.908742930067011 
C  3.032899337720713  -3.1890001439946682  -3.400667248659944 
H  3.879914564600083  -3.349347855108601  -3.748846206919891 
C  2.902765772119409  -2.54041530512047  -2.182937618616189 
H  3.6584189198891255  -2.2779004468821906  -1.7101235330922222 
C  1.090416130579559  -3.042284992854778  1.04105434374106 
C  1.1016912281666127  -4.3282248229221345  0.5112712884998184 
H  1.2516058099111473  -4.453986555154407  -0.398015396152674 
C  0.8909706007536772  -5.4221717215595335  1.3321069664185723 
H  0.8811794635075815  -6.281095382745598  0.9722290178218892 
C  0.6943895079048444  -5.236584445198683  2.6907621201597083 
H  0.5586146322290007  -5.9705358778028375  3.24560973681992 
C  0.6996597720725879  -3.9792452769163393  3.215361243508833 
H  0.5633323804604258  -3.8611852945659595  4.127379468580933 
C  0.9057418333963025  -2.876270103565157  2.4021507842970102 
H  0.9199999408060979  -2.021946772812576  2.772028889765429 
C  2.6141556605676723  1.0976462815659578  -0.8042134275660874 
H  2.3006160662911825  0.6215096391992776  -1.5877505234439662 
H  3.1234545051806624  1.8668329490532272  -1.1058076871860245 
C  1.8736470657639501  2.0304416331468413  1.3686841501146967 
H  2.52571640856345  1.3804315000150233  1.7068392757700588 
C  2.587536749615639  3.3532548253124776  1.1215494137405773 
H  2.4532488732260638  3.9594281841476455  1.8654595126727571 
H  3.539334741436416  3.213579822665775  1.0008108681074495 
C  1.9602211273852626  3.909604194437498  -0.14625158782865472 
H  2.63824647376215  4.0483256598747985  -0.8262163624291062 
H  1.5263177274700872  4.7571146621733895  0.03541573620114274 
C  0.7342403497487368  2.1417192774154863  2.37358535987887 
H  0.053966016740286005  2.719894253452768  2.0224229773060483 
H  1.0686014413419402  2.5016903437494777  3.1976769153695104 
H  0.36171253564514383  1.2710287600222925  2.533083512347104 
C  0.6626445287839684  2.7792013039722754  -2.1084558931929904 
H  0.07408749480619181  2.0421222361640097  -2.282179223676194 
H  1.4911196919661553  2.6440995237944325  -2.574017256477194 
H  0.25367171163792457  3.5927330580592267  -2.4122407017793273 
C  0.9288568826951213  2.872679443570342  -0.6233644212484334 
H  0.07693469156840127  3.098189879914992  -0.19321381580248997 
Br  -1.654629867976521  1.654629867976521  0.0 
C  -1.352040782177733  -1.3199206589279684  -0.4819701001757076 
C  -1.6380700204479186  -1.599217458033982  -1.8139382277462257 
H  -1.1579680913617836  -1.159339363685303  -2.503515938957912 
C  -2.63068216563725  -2.52632649780156  -2.142289956238523 
H  -2.8368222554424674  -2.694399528648736  -3.0538898079700485 
C  -3.3101544432602585  -3.1961573187854975  -1.1619874135498987 
H  -3.9960123560788676  -3.811990145619169  -1.3868663427944008 
C  -2.9974710358883443  -2.9701089012107795  0.12423560353005347 
H  -3.438659168087169  -3.468581175155742  0.8017084178296768 
C  -2.0389854250767776  -2.015940632791841  0.4912562833419403 
H  -1.8619130127668426  -1.8492165108145995  1.4101568590026907 

-Pd 0
lanl2dz
F 1 1.0
1.472 1.0
****
-P 0
6-31+g(d)
****
-N 0
6-31+g(d)
****
-C 0
6-31g(d)
****
-H 0
6-31g(d,p)
****
-Br 0
6-31+g(d)
****

-Pd 0
lanl2dz


