%chk=KIKUZAXU_PN_Ni_gaussain.chk
%nprocshared=32
%mem=64GB
#p opt rwb97xd/gen pseudo=read

This Gaussian input file was generated using the DART python program. This file was generated on the 2023-10-04 at 16:41:16

0 1
Ni  0.0  0.0  0.0 
P  1.377500640653208  -1.4773598021470606  1.3909543444095552e-15 
N  1.3775006406532082  1.4773598021470606  1.3364634020565917e-17 
N  1.8681611494910801  4.313326595010254  0.47018259734301193 
C  1.332000883607195  2.1078002091802053  1.353724464316381 
H  1.6073452078959913  1.4369877005687448  2.0282517738986954 
H  0.3983990864356468  2.3709827591825343  1.5534090147762105 
C  2.2251817082368053  3.3287535256157414  1.4840717834259836 
H  2.119684036924877  3.724127001427869  2.3856027956335595 
H  3.1732993230001503  3.0626155378157582  1.3731500992282708 
C  2.0681558680666337  3.74410967928136  -0.8540174537784256 
H  3.011512531608426  3.460625774824678  -0.958755084386068 
H  1.869055317069104  4.424221557606302  -1.5456356602723056 
C  1.1488390485995208  2.5438067859557942  -1.02865799809497 
H  0.20806901919420362  2.8492187575988988  -0.9720979472658083 
H  1.28812315762521  2.1587559512347783  -1.9304119621303844 
C  2.7142989102319315  0.8225930089838941  -0.25005909905899226 
H  3.437916064447467  1.4307310662765662  0.044878194949961515 
H  2.826834626127032  0.6617823251851813  -1.2200444941161546 
C  2.8294474369110088  -0.4946832477355116  0.49785362331371336 
H  2.828236430741872  -0.3427985919638477  1.4766085695618583 
H  3.666210352517536  -0.9623267723501256  0.2495572339889626 
C  2.6018078332263217  5.560492391942228  0.6406808038066991 
H  2.439482922117846  5.915229358684087  1.5404800690100173 
H  2.2988968053921166  6.211745487905528  -0.027098451797013826 
H  3.560458021213849  5.394765830515434  0.5230278229301404 
C  1.138699794553098  -2.768669334345976  1.2431171859298435 
C  0.9755599097164591  -4.11021185304699  0.9058358664162569 
H  1.0629898483220601  -4.389000902540162  0.0010972733861288702 
C  0.6808090343989636  -5.038262665724728  1.8953879977301045 
H  0.5779591069682023  -5.955297296036904  1.6684689169200186 
C  0.5375161879268221  -4.632971230199129  3.2119647529705952 
H  0.32953626139892744  -5.272378061647469  3.882880689626324 
C  0.6959341326062931  -3.302904839368493  3.5566401086116746 
H  0.5910111003660614  -3.0281209482608404  4.460512456066376 
C  1.0062336524680886  -2.366268751809465  2.571914229264695 
H  1.1277944908223119  -1.453822164295088  2.806387889857906 
C  1.7756096467288383  -2.2483412268106098  -1.5837026368940923 
C  2.8802380825076357  -3.0886124614792996  -1.7223807211658324 
H  3.4513200069821326  -3.2479386693928465  -0.979500020776856 
C  3.1473776557424005  -3.6979949109622345  -2.944625741067388 
H  3.891610041191891  -4.282397023937864  -3.0347892968856236 
C  2.326444816621726  -3.44796941652061  -4.029626011013231 
H  2.5043813765284044  -3.8699834574427388  -4.862124149097128 
C  1.2519541201585642  -2.5882930714933354  -3.911361117597255 
H  0.7070617661440646  -2.402370996450536  -4.668137725684693 
C  0.9665771566145976  -2.0003142638003317  -2.693325814175229 
H  0.21610073578824074  -1.424107967431058  -2.6093348277059563 
Br  -1.5839191898578664  1.5839191898578664  0.0 
C  -1.2937473829822488  -1.2398794889499034  -0.4598005675376139 
C  -1.601562203225019  -1.4938654694550033  -1.7919791134336869 
H  -1.1309417375171225  -1.0428217585005106  -2.480879663633267 
C  -2.60218398542082  -2.411889969420291  -2.121542410022959 
H  -2.8231586547736818  -2.5626138747145775  -3.03270050271447 
C  -3.2683208079706407  -3.09759503004543  -1.143064365570095 
H  -3.9596020908062854  -3.707191723557817  -1.3683280760515548 
C  -2.9347449854640226  -2.896087320001541  0.14198826503765638 
H  -3.3668350933519986  -3.405606940434718  0.8171022443470677 
C  -1.9675509241539992  -1.9516175659140573  0.5112421903797603 
H  -1.7755298364628027  -1.8022912010877177  1.4301324877763764 

-Ni 0
lanl2dz
F 1 1.0
3.130 1.0
****
-H 0
6-31g(d,p)
****
-P 0
6-31+g(d)
****
-N 0
6-31+g(d)
****
-C 0
6-31g(d)
****
-Br 0
6-31+g(d)
****

-Ni 0
lanl2dz


