%chk=IZUVETEH_PN_Pd_gaussain.chk
%nprocshared=32
%mem=64GB
#p opt rwb97xd/gen pseudo=read

This Gaussian input file was generated using the DART python program. This file was generated on the 2023-10-04 at 16:41:16

0 1
Pd  0.0  0.0  0.0 
P  1.5799846992930036  -1.4127095773725042  -2.060556439276755e-15 
N  1.5799846992930024  1.4127095773725038  -3.95051631130436e-16 
N  1.6034448232279568  2.7877561977917757  0.0058364594143713675 
H  0.9767973354752408  3.2382794760325497  -0.3199558238834444 
C  2.7874386930356483  3.1662356096709336  0.38982797109328243 
C  3.608712368958513  2.009794571705762  0.619790804929885 
H  4.520035476139065  1.996731263934943  0.8861156522665063 
C  2.8117883873725766  0.9435014112943485  0.3761091609083258 
C  3.087302676048896  4.62794344621058  0.5258047790055858 
H  2.2894591454631694  5.147651942393872  0.29603822422135395 
H  3.8195882383033943  4.868839370929199  -0.07778841907371596 
H  3.3482836544245487  4.823254396471976  1.45130111699623 
C  3.0722790692078803  -0.5579599321935907  0.4863493472668998 
H  3.311510946669026  -0.7946976278649309  1.4181229583198454 
H  3.8219564667640267  -0.8173872312437214  -0.10471684708106489 
C  1.4819157802684124  -3.8722017445186383  -1.4276615379242379 
H  0.8369073267913454  -4.131616804676729  -0.7803118785388987 
C  1.8427323307194234  -4.7926051953243975  -2.4734833462001338 
H  1.4283090848000821  -5.646822544260654  -2.481721308204829 
C  2.723119606665345  -4.51398964241503  -3.430297851749429 
H  2.9520936745361874  -5.142244157154526  -4.10566153966296 
C  3.2738755541454854  -3.27922155707059  -3.378027384656735 
H  3.9038317725526728  -3.0199651919504533  -4.042089166447271 
C  2.9165272462197773  -2.3379722151689593  -2.3225468954043635 
H  3.3176439276029175  -1.4767557560416407  -2.3278306861254583 
C  2.049032222162068  -2.632414970185632  -1.3456179792322185 
C  0.0015279639728023042  -2.2549888816673636  2.0118723737550908 
H  -0.6689374320243282  -1.6812765822806606  1.6594777224011987 
C  -0.21600487519643896  -2.978491465900565  3.118493738310678 
H  -1.0478835033524871  -2.9194990506618974  3.5708989250200553 
C  0.8115422532934289  -3.841078454421193  3.612819183707884 
H  0.6406980817367164  -4.345600375569084  4.398529785727705 
C  2.029554471221388  -3.970352937248491  3.005197915920133 
H  2.6938593240786446  -4.5533795431358115  3.352550603109671 
C  2.249047922676372  -3.2462466691345697  1.9082451378815593 
H  3.0850050917957432  -3.3106938644097195  1.4611040634776193 
C  1.2399223140910167  -2.375557534084086  1.3985918476907855 
Br  -1.654629867976521  1.654629867976521  0.0 
C  -1.352040782177733  -1.3199206589279684  -0.4819701001757076 
C  -1.6380700204479186  -1.599217458033982  -1.8139382277462257 
H  -1.1579680913617836  -1.159339363685303  -2.503515938957912 
C  -2.63068216563725  -2.52632649780156  -2.142289956238523 
H  -2.8368222554424674  -2.694399528648736  -3.0538898079700485 
C  -3.3101544432602585  -3.1961573187854975  -1.1619874135498987 
H  -3.9960123560788676  -3.811990145619169  -1.3868663427944008 
C  -2.9974710358883443  -2.9701089012107795  0.12423560353005347 
H  -3.438659168087169  -3.468581175155742  0.8017084178296768 
C  -2.0389854250767776  -2.015940632791841  0.4912562833419403 
H  -1.8619130127668426  -1.8492165108145995  1.4101568590026907 

-Pd 0
lanl2dz
F 1 1.0
1.472 1.0
****
-H 0
6-31g(d,p)
****
-P 0
6-31+g(d)
****
-N 0
6-31+g(d)
****
-C 0
6-31g(d)
****
-Br 0
6-31+g(d)
****

-Pd 0
lanl2dz


