%chk=AZETEZEJ_PN_Pd_gaussain.chk
%nprocshared=32
%mem=64GB
#p opt rwb97xd/gen pseudo=read

This Gaussian input file was generated using the DART python program. This file was generated on the 2023-10-04 at 09:55:46

0 1
Pd  0.0  0.0  0.0 
P  1.4553071651716705  1.5408377769901667  -2.871260282371465e-15 
N  1.4553071651716698  -1.5408377769901667  2.220446049250313e-16 
C  2.4351220030499294  -1.4301936666588246  -0.8197150628862551 
H  3.0438054891729474  -2.1338155541736703  -0.8529721392939699 
C  2.677834688388689  -0.2908638837213946  -1.7090063695385982 
C  2.4271236963886484  0.9954076138995056  -1.4307416701991877 
C  2.996770345963208  1.9098295641143146  -2.493813470029239 
H  3.5329929964222018  2.613406362521768  -2.096592224528119 
H  2.289208089501047  2.3131980038562787  -3.0216636524203517 
C  3.8526704777604763  0.9875952827250218  -3.345135391877732 
H  4.793393445649992  1.1547433750459986  -3.17651385434886 
H  3.6768726281344373  1.1424932957178098  -4.28658014949114 
C  3.4980308266941753  -0.44342104029576923  -2.9740565577472626 
H  2.979872376397915  -0.8666143768933061  -3.6754687120802556 
H  4.296885166898316  -0.9677141632084445  -2.8100511175829865 
C  1.497517993887715  -2.721493711162274  0.9548870409861623 
C  2.9312484147604128  -3.0631983622699823  1.3843671356070966 
H  3.3689239281817245  -2.2687493240388705  1.6985214935349873 
H  3.413801421933124  -3.418744311480894  0.6342746991245637 
H  2.9074183303809438  -3.7146344316534274  2.0879352308080863 
C  0.8660301416713242  -3.911616268114422  0.24679150227911476 
H  -0.03324737988425053  -3.692587302158486  -0.007959731863461827 
H  0.8546767966691285  -4.666360915712337  0.8386745553221701 
H  1.3771483738764119  -4.126461419202714  -0.5364328421851084 
C  0.7381377097863301  -2.33500030550131  2.207997244239965 
H  -0.16866563376266686  -2.1179798442992266  1.9793656944748237 
H  1.1566596896368737  -1.5714604036576993  2.6140314554520767 
H  0.7456619352082509  -3.0693254835938384  2.8264205045166024 
C  1.0970734689506376  3.2779529230300226  -0.4799475682725758 
C  1.6923748599751376  4.411322237489104  0.13254222012137373 
C  1.4563157472135964  5.673615837792241  -0.4141985428696297 
H  1.844131923592772  6.414776557015241  -0.008290102923513426 
C  0.6690987627160631  5.867431039794459  -1.5351682957137915 
C  0.07500394878503935  4.756344119700778  -2.1095785742230033 
H  -0.4795987987432748  4.8747382314782985  -2.847032218007122 
C  0.27870855018071183  3.4617547347646833  -1.6229109157731842 
C  2.589690949322278  4.363726954523459  1.3360129571308825 
H  2.936842650274566  5.240312822400075  1.5117516346180755 
H  3.3158668971894896  3.758920232546298  1.1705072720611251 
H  2.088619246035338  4.060351802394786  2.0976907336453756 
C  0.484527771421443  7.236457112169541  -2.1509997437008206 
H  0.9658029393629779  7.886754077212341  -1.6347869290797568 
H  -0.4490042773923799  7.460771842221883  -2.1585426687997247 
H  0.8193258725419582  7.230482729182915  -3.0504332255292788 
C  -0.3595538916637009  2.3586263195721173  -2.4438189282359772 
H  -0.0706559227548722  2.4304119362358403  -3.3568071257503727 
H  -1.3147741663726864  2.4417051367660036  -2.4027125185340807 
H  -0.0974668966681087  1.5056647945975201  -2.0910358447877995 
C  2.482306949078147  1.3189600880436934  1.5141597653497139 
C  3.848498587725599  0.9760912553285599  1.5156089176583973 
C  4.399774655627819  0.4364070994634559  2.6865892756774645 
H  5.293061450673794  0.17564838040813857  2.6767159665475884 
C  3.677223548900252  0.2743151299325244  3.852102459464078 
C  2.3767143851264825  0.7360796359857411  3.8671821109824585 
H  1.8960272615529905  0.7012808656020488  4.662374751045496 
C  1.760069066752132  1.253235953087826  2.7303111002655713 
C  4.791400329910392  1.2430910694190636  0.3674675962782247 
H  4.454723711912967  1.971372587277488  -0.15967205849995947 
H  4.860763870040759  0.4563265682474811  -0.17937257140957175 
H  5.658839431597182  1.4704883108628892  0.7114334949492491 
C  4.297222602144106  -0.3553548356463305  5.081318591161275 
H  5.201878894880514  -0.612411364188679  4.886732509577326 
H  3.7913764373430627  -1.1317081207641793  5.332925097918947 
H  4.29113039688079  0.27799301224085626  5.801744727980125 
C  0.3412371885756027  1.7634146505075856  2.863811954829232 
H  0.2285446236464621  2.1766225004888384  3.723482210522401 
H  -0.2720564829609067  1.0293508594384115  2.7797910461550677 
H  0.16618845192124465  2.408514394194843  2.173647423365626 
Br  -1.654629867976521  1.654629867976521  0.0 
C  -1.352040782177733  -1.3199206589279684  -0.4819701001757076 
C  -1.6380700204479186  -1.599217458033982  -1.8139382277462257 
H  -1.1579680913617836  -1.159339363685303  -2.503515938957912 
C  -2.63068216563725  -2.52632649780156  -2.142289956238523 
H  -2.8368222554424674  -2.694399528648736  -3.0538898079700485 
C  -3.3101544432602585  -3.1961573187854975  -1.1619874135498987 
H  -3.9960123560788676  -3.811990145619169  -1.3868663427944008 
C  -2.9974710358883443  -2.9701089012107795  0.12423560353005347 
H  -3.438659168087169  -3.468581175155742  0.8017084178296768 
C  -2.0389854250767776  -2.015940632791841  0.4912562833419403 
H  -1.8619130127668426  -1.8492165108145995  1.4101568590026907 

-Pd 0
lanl2dz
F 1 1.0
1.472 1.0
****
-P 0
6-31+g(d)
****
-N 0
6-31+g(d)
****
-C 0
6-31g(d)
****
-H 0
6-31g(d,p)
****
-Br 0
6-31+g(d)
****

-Pd 0
lanl2dz


