%chk=IGEHABEZ_PN_Ni_gaussain.chk
%nprocshared=32
%mem=64GB
#p opt rwb97xd/gen pseudo=read

This Gaussian input file was generated using the DART python program. This file was generated on the 2023-10-04 at 16:41:16

0 1
Ni  0.0  0.0  0.0 
P  1.245002893570935  -1.590618683091582  -5.959464547128389e-15 
N  1.245002893570935  1.590618683091582  -4.168392128162397e-16 
C  0.7320215338318316  -2.947960570214186  -1.0557205056371177 
C  2.605396410535921  -2.6249982722977947  2.207390417310315 
H  3.3848811780565815  -2.4960107329327834  1.7151885767084822 
C  4.631141649442339  -5.641424563528368  -1.7179824256972611 
H  4.09337869880941  -5.690974732803893  -2.511551609607097 
H  5.447680177621061  -6.127533753756886  -1.8546171108074057 
H  4.1501296846393565  -6.024500712750813  -0.9803928829207328 
C  2.6960033986347702  -3.1938618469675646  3.4703332652340007 
H  3.5208333794311835  -3.44392091154923  3.8192131113127874 
C  2.926521155805034  -1.1700646734405553  -0.5891196811682092 
C  3.7801544935624922  -2.034146240952777  -1.2819534197770297 
C  3.305259653606462  0.19274499806836992  -0.4355074436190771 
C  0.36087203685389646  -3.783165807724596  -3.2885882585791166 
H  0.3487967939197415  -3.6488519037883256  -4.20964409495252 
C  5.7406481580889235  -4.124995078799927  -0.2419221372546636 
H  6.562335412958349  -4.5982865929777805  -0.3957582116727845 
H  5.933018999155129  -3.2060957093048157  -0.04067912930416722 
H  5.27684040479601  -4.523699983213202  0.4987814250306797 
C  1.4024080166012847  -2.2654927377038234  1.6714306290286391 
C  0.3330063393319943  -2.999976091520139  3.691996684771547 
H  -0.440713139609058  -3.1604632514621063  4.182529588256136 
C  3.633879978851448  -3.536823938258801  -1.281286812615098 
H  3.0439578565649152  -3.7785907891627266  -2.012852544071244 
H  3.2117260540255277  -3.824126061550715  -0.4555884332379517 
C  0.5412756451338778  -4.274991927533195  -0.5739173584526108 
H  0.6888861779894184  -4.473240325060564  0.3221179720271363 
C  0.8085924518479931  2.5903826943561463  1.0681354165719785 
H  -0.04873478403556053  2.9518644379770937  0.8310523728066493 
H  0.7374278978267186  2.122131781728638  1.9036443627086905 
H  1.4459870159909143  3.302702052882607  1.1545940833990533 
C  4.8811393041269575  -1.4938361690695612  -1.9498977611168895 
H  5.458398328779176  -2.0543627204533825  -2.4157100662907562 
C  2.5594779622870765  1.0976493131631817  0.5015624627462997 
H  3.112499544427652  1.8617921985199586  0.7250748123947386 
H  2.409090269796874  0.6003971757353078  1.3217402872276083 
N  4.920152187395525  -4.2383926717726315  -1.4552661725488438 
C  4.42374287064072  0.6851114359363123  -1.0967291568696265 
H  4.713840802850891  1.5580553694887718  -0.9561453078636544 
C  0.27459273217004343  -5.288192446382633  -1.4363537111977696 
H  -0.0006840679784398951  -6.109884640051369  -1.0925587691700038 
C  0.6213562519070353  -2.7524001739315214  -2.4340501892695685 
H  0.6976238667101226  -1.8867966514556542  -2.7702807839655557 
C  0.2665317585234346  -2.442271083758124  2.4330089984046332 
H  -0.5580452135932028  -2.173081434754518  2.1003925076464216 
C  1.5643550568979965  -3.402387962324971  4.196360771502473 
H  1.616327381032136  -3.7791047589838342  5.044458397156024 
C  1.4909700612788173  2.361289632094524  -1.2808216428420873 
H  0.661047135580139  2.6901892801127283  -1.6344894232989131 
H  2.0676049433912116  3.099131436969405  -1.0741753902503397 
H  1.9139127591131566  1.7945270480867672  -1.9297897373717643 
C  0.1941793029286023  -5.068104351906349  -2.764173718227138 
H  0.06755664406473594  -5.807861559279887  -3.3129150747888234 
C  5.16952096484674  -0.16564904763213417  -1.8956038553054024 
H  5.8445512178558205  0.19933135349809308  -2.4219987301980845 
Br  -1.5839191898578664  1.5839191898578664  0.0 
C  -1.2937473829822488  -1.2398794889499034  -0.4598005675376139 
C  -1.601562203225019  -1.4938654694550033  -1.7919791134336869 
H  -1.1309417375171225  -1.0428217585005106  -2.480879663633267 
C  -2.60218398542082  -2.411889969420291  -2.121542410022959 
H  -2.8231586547736818  -2.5626138747145775  -3.03270050271447 
C  -3.2683208079706407  -3.09759503004543  -1.143064365570095 
H  -3.9596020908062854  -3.707191723557817  -1.3683280760515548 
C  -2.9347449854640226  -2.896087320001541  0.14198826503765638 
H  -3.3668350933519986  -3.405606940434718  0.8171022443470677 
C  -1.9675509241539992  -1.9516175659140573  0.5112421903797603 
H  -1.7755298364628027  -1.8022912010877177  1.4301324877763764 

-Ni 0
lanl2dz
F 1 1.0
3.130 1.0
****
-H 0
6-31g(d,p)
****
-P 0
6-31+g(d)
****
-N 0
6-31+g(d)
****
-C 0
6-31g(d)
****
-Br 0
6-31+g(d)
****

-Ni 0
lanl2dz


