%chk=OHAXOMAP_PN_Pd_gaussain.chk
%nprocshared=32
%mem=64GB
#p opt rwb97xd/gen pseudo=read

This Gaussian input file was generated using the DART python program. This file was generated on the 2023-10-04 at 09:55:46

0 1
Pd  0.0  0.0  0.0 
P  1.5251001229427508  -1.4717912946474443  1.1165337708256259e-15 
N  1.3546150911655663  1.0286024251574617  2.310744752217388 
N  1.5251001229427528  1.4717912946474443  -6.243316596503558e-16 
C  1.6933312980494097  -1.4700145243882974  1.8217251507320638 
C  1.8895800895828119  -2.68068198211832  2.5009111698867605 
H  2.1108853526130726  -3.4357346985200694  2.0054810173834565 
C  1.7710868128843744  -2.8055196175005914  3.8771144681568415 
H  1.9196079804487667  -3.629841003564109  4.283323571038134 
C  1.4316950443285232  -1.7112300630934907  4.64615844515172 
H  1.2857555874485402  -1.8019466344481152  5.560151671935838 
C  1.3132453102606123  -0.4762956185088169  4.031333439090947 
C  1.0237154646669475  0.8333688509102185  4.568748824106937 
C  0.6964537034913756  1.2951677469030167  5.848916504269255 
H  0.6337693088852878  0.7045336718399268  6.564674910470169 
C  0.46938586480542344  2.6405889130706957  6.026351033779449 
H  0.2653270232028111  2.9661361029083495  6.873778591953327 
C  0.5414165860967433  3.5176117115437604  4.9516708878063405 
H  0.38613599800478116  4.422630096177616  5.097079011501461 
C  0.8382203334580605  3.0893424913816787  3.6759798395449934 
H  0.8733297939817357  3.683155274606052  2.961932814300109 
C  1.0803823045526253  1.7358017874483824  3.5037395639084665 
C  1.4830762201420942  -0.3408613652115474  2.639288136278339 
C  1.9777916835038636  1.7003479461396516  1.2349296287867848 
C  3.007060554707963  2.602192891701685  1.4659240116934857 
H  3.3223256072930747  2.7453736101679405  2.3288080586418607 
C  3.551753279033732  3.2776870827704996  0.4104647211953301 
H  4.246407634456255  3.8793000921830214  0.5514887737470768 
C  3.0701299314706336  3.0659634497165045  -0.8651451385535506 
H  3.4245668196425463  3.52846764271967  -1.5893217287285484 
C  2.061916073803583  2.1618723602806607  -1.0348554187691745 
H  1.7315376078943576  2.0155824951462313  -1.8916848852457004 
C  1.1358026750589492  -3.2274989003368675  -0.4311835808509888 
H  1.86780632909232  -3.7775672306390446  -0.08030366908574442 
C  -0.16084601582817615  -3.72795727556896  0.2349094585067396 
H  -0.10450212936544734  -3.6004423923905287  1.1943138211329858 
H  -0.9150174907240765  -3.2153544848446667  -0.09361668260690142 
C  -0.37465228308206533  -5.206349329464901  -0.07284600458093285 
H  0.34216424429767334  -5.7253071448683155  0.3235379404862094 
H  -1.2093840022075295  -5.499383098293729  0.32379081596376036 
C  -0.4120607990375935  -5.460999215194644  -1.5674341514066246 
H  -1.185954562781202  -5.019523666070917  -1.9504473260686501 
H  -0.4993556881658592  -6.4133140271501965  -1.730226630539247 
C  0.8504213729791149  -4.945303880020228  -2.244987733508683 
H  0.7734232236780556  -5.071786368180748  -3.2036334215462072 
H  1.611691541637252  -5.460042398147879  -1.9353323956458064 
C  1.0830050748561202  -3.4652609806485497  -1.9470787245132126 
H  0.36518566400360375  -2.939304421579875  -2.333839686059218 
H  1.9171497255222876  -3.1810497466772283  -2.35072398492082 
C  3.2408137801894785  -1.116943095789805  -0.5997600120920324 
H  3.5099028910707535  -0.2915243530522311  -0.14220016951114142 
C  3.3388371064807916  -0.8012951967367787  -2.0929084445414734 
H  3.161341736762482  -1.6054025245243728  -2.6077795440672045 
H  2.672050024259305  -0.13899348755762625  -2.330180973505394 
C  4.726463659073931  -0.2756199479337012  -2.4298921434563794 
H  4.7896909899261075  -0.11760791467479567  -3.384842970451524 
H  4.868190844347657  0.5715260533603659  -1.977206328076813 
C  5.803523949240331  -1.2526059718552809  -2.011423099907653 
H  6.674991024561501  -0.8528093993793233  -2.164766789923376 
H  5.741191291551423  -2.0504125625521445  -2.559567919846762 
C  5.687239541841131  -1.6431059952554539  -0.5509529843899463 
H  5.892396157957841  -0.8734114916122864  0.0011017537701888361 
H  6.337157060522886  -2.334906516635694  -0.352081600001439 
C  4.282296241810709  -2.1544443030284155  -0.20308983787450002 
H  4.112027398112871  -2.9856414024059084  -0.6736917427285297 
H  4.225124116725819  -2.3288431739372726  0.7479640627741436 
Br  -1.654629867976521  1.654629867976521  0.0 
C  -1.352040782177733  -1.3199206589279684  -0.4819701001757076 
C  -1.6380700204479186  -1.599217458033982  -1.8139382277462257 
H  -1.1579680913617836  -1.159339363685303  -2.503515938957912 
C  -2.63068216563725  -2.52632649780156  -2.142289956238523 
H  -2.8368222554424674  -2.694399528648736  -3.0538898079700485 
C  -3.3101544432602585  -3.1961573187854975  -1.1619874135498987 
H  -3.9960123560788676  -3.811990145619169  -1.3868663427944008 
C  -2.9974710358883443  -2.9701089012107795  0.12423560353005347 
H  -3.438659168087169  -3.468581175155742  0.8017084178296768 
C  -2.0389854250767776  -2.015940632791841  0.4912562833419403 
H  -1.8619130127668426  -1.8492165108145995  1.4101568590026907 

-Pd 0
lanl2dz
F 1 1.0
1.472 1.0
****
-P 0
6-31+g(d)
****
-N 0
6-31+g(d)
****
-C 0
6-31g(d)
****
-H 0
6-31g(d,p)
****
-Br 0
6-31+g(d)
****

-Pd 0
lanl2dz


