%chk=ICURENEV_PN_Pd_gaussain.chk
%nprocshared=32
%mem=64GB
#p opt rwb97xd/gen pseudo=read

This Gaussian input file was generated using the DART python program. This file was generated on the 2023-10-04 at 09:55:46

0 1
Pd  0.0  0.0  0.0 
P  1.7252117123703974  -1.2311557771054003  -1.1524304245765825e-15 
N  1.7252117123703972  1.2311557771054003  -2.0628424939964788e-16 
N  4.038560241897103  0.6022114392730722  0.2582656207190447 
C  2.723439538213071  0.37000176254787664  0.051089244708567745 
C  0.9207283018835914  -3.140832747900885  4.1211992283151435 
H  1.0160566177021428  -3.5947200385196423  4.972636166448543 
H  -0.002922213262424034  -2.8579656148571786  4.028973413522527 
C  2.0453381317984216  -2.1599902603327017  1.5724418457774902 
C  3.5123685738668002  -2.591505337367926  1.7624638453880506 
H  3.7776494976433668  -3.1785390852005775  1.038803931902567 
H  4.088969194790092  -1.8103289924368309  1.747206648037892 
C  2.1335201999549698  -1.161077346248464  -2.710220567130132 
H  1.3910686652269861  -0.5365392379939672  -2.7199883671881326 
H  2.9478146925908355  -0.6598588112139877  -2.54933890440629 
C  3.294735459172952  -2.361759979176926  4.242719507165373 
H  3.409013077486254  -2.8063990250067343  5.096915775523078 
H  3.8793696968651257  -1.5875465102355388  4.223668978882833 
C  1.8563627537449188  2.650415762310676  -0.16827798056043347 
C  2.3689179915667777  3.145448240193305  -1.3536365693523675 
H  2.6134079387737246  2.5647695126964223  -2.0377681511020755 
C  1.123060271429865  -3.3991251962762266  1.6227422314444797 
H  0.1994190077543554  -3.128906698189677  1.501176819719892 
H  1.357545119384946  -4.012080875024095  0.9096343420124309 
C  0.5976671195366206  -2.937811128177291  -1.8675147800831724 
H  0.4277637355240602  -3.5887178817354086  -1.1679226858786127 
H  -0.1367256932202774  -2.303477521071826  -1.8786808656818874 
C  1.9290142199067017  -2.1956392625273633  -1.5851477137069225 
C  3.6617630136461488  -3.320126159916529  3.103043984101004 
H  4.590597261810082  -3.613427728016215  3.2120644848704836 
C  1.2881087143295984  -4.094051484979948  2.982650344062712 
H  0.702502260021292  -4.880303925979645  3.016810403993538 
C  0.6929691495132877  -3.650349067171909  -3.228447110721137 
H  -0.1464125066790507  -4.126950319354286  -3.400107623553915 
C  1.8409307370920611  -1.9185129870838349  4.0801542462520315 
H  1.6029826152260698  -1.3060145900305093  4.806865320137352 
C  2.2252643660987212  -1.8815227695606955  -4.067355096204944 
H  2.377420135152495  -1.222519124296933  -4.776423081290109 
C  0.9227733748069598  -2.621783094003763  -4.3379807410712266 
H  0.9705640497530403  -3.068735145265504  -5.196315113714633 
H  0.18482588151521262  -1.9921639187418831  -4.3615451482776235 
C  2.735952405473722  -4.538735378911861  3.161511660427503 
H  2.974920500724722  -5.164576790964169  2.461510577276565 
H  2.837393245284808  -4.986904132420265  4.017100150530753 
C  3.157382315953938  -3.9145135019639463  -2.952152962275734 
H  3.898727104047091  -4.556609757937837  -2.9518823491986477 
C  1.659502864792725  -1.207269482172729  2.732137842837466 
H  2.218031724875253  -0.4159501194105678  2.7023561610078617 
H  0.734932057230794  -0.9293691982586908  2.6310017266137997 
C  2.168698797285891  5.378729264520263  -0.5024936138962 
H  2.304132481331357  6.293389842767786  -0.6043475967627779 
C  5.016729365055267  -0.29231950106764654  -0.42636120702961844 
H  4.546286976705458  -1.1370507969278338  -0.5862561945624113 
C  2.5150580602696806  4.511661692852108  -1.5148093092733075 
H  2.851196554922988  4.848260332688181  -2.3133098340525495 
C  3.0688659355908  -3.2314555367264535  -1.584224482225305 
H  3.909357067872388  -2.7924947975171412  -1.38431983998601 
H  2.9057277758632667  -3.8964867904683635  -0.8971315973929974 
C  1.4445619955304807  3.517219415304979  0.8340611899251682 
H  1.0565899597545856  3.1831294060235726  1.6098275820525174 
C  1.8429539718209498  -4.651256866912107  -3.2122438739676484 
H  1.888257375670421  -5.112675483113239  -4.06400694678936 
H  1.6944117769964044  -5.311361177116247  -2.5167645097830302 
C  1.6151858474152092  4.881023798327629  0.6713007647099755 
H  1.3587843637597896  5.464820993910678  1.3477909816449192 
C  3.3945366662145  -2.8601280544521597  -4.028683859290703 
H  4.216477926598664  -2.3787858181404453  -3.839342405772014 
H  3.488114880108053  -3.2913715005482143  -4.891736388447361 
C  6.256813619133876  -0.6454049538460438  0.3747241541040115 
H  6.798704802455116  0.13970039023361963  0.48841973069469896 
H  6.759694128501672  -1.3173418040673774  -0.09321491523369368 
H  5.996911886697812  -0.9828083821730823  1.234869860382832 
C  4.474965561106569  1.8128730449915478  1.0124989094333812 
H  3.6615109613796237  2.331301420887765  1.1866479641212437 
C  5.048046060371087  1.4562676233508915  2.381917641822902 
H  4.512792170637694  0.7683189366369029  2.784394197629297 
H  5.043573342781173  2.2352220358093735  2.9437075207890664 
H  5.94829289263129  1.1404420452796986  2.2784551112069176 
C  5.433459433861662  0.22863971622000512  -1.8063817879180581 
H  4.6738288283195955  0.6192560979508996  -2.2436240496532243 
H  5.768671253045757  -0.49947402996051365  -2.3340554928743087 
H  6.11945666922965  0.8931478517570748  -1.7032056721134061 
C  5.3941016915320485  2.725627792113849  0.2219455049424317 
H  6.232599362881146  2.283993536635346  0.07232067568570427 
H  5.5423527497628715  3.5355343234744487  0.7155732636765595 
H  4.98824888073449  2.9360761811951757  -0.6235098584569735 
Br  -1.654629867976521  1.654629867976521  0.0 
C  -1.352040782177733  -1.3199206589279684  -0.4819701001757076 
C  -1.6380700204479186  -1.599217458033982  -1.8139382277462257 
H  -1.1579680913617836  -1.159339363685303  -2.503515938957912 
C  -2.63068216563725  -2.52632649780156  -2.142289956238523 
H  -2.8368222554424674  -2.694399528648736  -3.0538898079700485 
C  -3.3101544432602585  -3.1961573187854975  -1.1619874135498987 
H  -3.9960123560788676  -3.811990145619169  -1.3868663427944008 
C  -2.9974710358883443  -2.9701089012107795  0.12423560353005347 
H  -3.438659168087169  -3.468581175155742  0.8017084178296768 
C  -2.0389854250767776  -2.015940632791841  0.4912562833419403 
H  -1.8619130127668426  -1.8492165108145995  1.4101568590026907 

-Pd 0
lanl2dz
F 1 1.0
1.472 1.0
****
-P 0
6-31+g(d)
****
-N 0
6-31+g(d)
****
-C 0
6-31g(d)
****
-H 0
6-31g(d,p)
****
-Br 0
6-31+g(d)
****

-Pd 0
lanl2dz


