%chk=VAYOWIRI_PN_Ni_gaussain.chk
%nprocshared=32
%mem=64GB
#p opt rwb97xd/gen pseudo=read

This Gaussian input file was generated using the DART python program. This file was generated on the 2023-10-04 at 16:41:16

0 1
Ni  0.0  0.0  0.0 
P  1.382708702149517  -1.4724865517212697  1.8032759423529767e-16 
N  1.382708702149517  1.4724865517212702  -1.8032759423529772e-16 
H  1.559777748154338  1.7692414385412583  0.8965707390359166 
H  1.1855706360422364  2.124045032088028  -0.5259844575209881 
C  2.6454706200464715  0.9243858413571802  -0.49000609180664734 
C  3.6685552545778055  1.765678489192847  -0.9161370238962196 
H  3.5388109169304096  2.706217588433568  -0.9310845871722845 
C  4.8740006528635265  1.2218867621553486  -1.3189502304291938 
H  5.581367459237909  1.7938538942255806  -1.5944678180186223 
C  5.0591527809911225  -0.1556896188505194  -1.3232518515886984 
H  5.892375945941835  -0.5226302468436215  -1.598235492770545 
C  4.03531136741262  -0.9863313612625223  -0.9280918009707454 
H  4.158089015834659  -1.9274907989361703  -0.9512911959150516 
C  2.816511293869749  -0.45861893218012245  -0.49335933965251405 
C  1.400619926806698  -2.6990492309448957  -1.3729828119707426 
C  1.6560063146796584  -4.0588559250429865  -1.2045166207773064 
H  1.8103198462185817  -4.406920659081396  -0.33339726907928885 
C  1.6863374307225454  -4.90780368184167  -2.3068942283265805 
H  1.8573403407056936  -5.833946741284797  -2.1821420010013086 
C  1.4736015967572438  -4.421353986146527  -3.5719995277010135 
H  1.496149111211597  -5.0080344783996935  -4.319124918516734 
C  1.2269925551504062  -3.076473190675022  -3.7542814976532886 
H  1.0819504344565547  -2.7370016013313525  -4.629907378525447 
C  1.1877160021877364  -2.2184296937594996  -2.664955582333001 
H  1.0152780971515218  -1.2948135843898039  -2.8002702578841436 
C  1.9848260632662806  -2.4633953062320506  1.4208961023508084 
C  3.2128566606287596  -2.228677760189957  2.037580085863859 
H  3.791289651526874  -1.557379079163287  1.6926035563832047 
C  3.597234506128027  -2.9634076792750093  3.1466454526888548 
H  4.441280608455466  -2.802678435450446  3.550272827039845 
C  2.766417330623212  -3.9200894794267938  3.6630423680016295 
H  3.027864839227205  -4.40854132923095  4.434854677224339 
C  1.5535012547476923  -4.174308704425773  3.06595521479561 
H  0.9826663696497705  -4.845076772796534  3.4207387437388097 
C  1.1617910042953086  -3.4488260922068394  1.943520736058184 
H  0.3258662168078448  -3.631626308402601  1.532895760413928 
Br  -1.5839191898578664  1.5839191898578664  0.0 
C  -1.2937473829822488  -1.2398794889499034  -0.4598005675376139 
C  -1.601562203225019  -1.4938654694550033  -1.7919791134336869 
H  -1.1309417375171225  -1.0428217585005106  -2.480879663633267 
C  -2.60218398542082  -2.411889969420291  -2.121542410022959 
H  -2.8231586547736818  -2.5626138747145775  -3.03270050271447 
C  -3.2683208079706407  -3.09759503004543  -1.143064365570095 
H  -3.9596020908062854  -3.707191723557817  -1.3683280760515548 
C  -2.9347449854640226  -2.896087320001541  0.14198826503765638 
H  -3.3668350933519986  -3.405606940434718  0.8171022443470677 
C  -1.9675509241539992  -1.9516175659140573  0.5112421903797603 
H  -1.7755298364628027  -1.8022912010877177  1.4301324877763764 

-Ni 0
lanl2dz
F 1 1.0
3.130 1.0
****
-H 0
6-31g(d,p)
****
-P 0
6-31+g(d)
****
-N 0
6-31+g(d)
****
-C 0
6-31g(d)
****
-Br 0
6-31+g(d)
****

-Ni 0
lanl2dz


