%chk=WUJEMAXO_PN_Ni_gaussain.chk
%nprocshared=32
%mem=64GB
#p opt rwb97xd/gen pseudo=read

This Gaussian input file was generated using the DART python program. This file was generated on the 2023-10-04 at 16:41:16

0 1
Ni  0.0  0.0  0.0 
P  1.2795876122798324  1.5629317139593777  -1.901542980087059e-15 
N  1.2795876122798315  -1.5629317139593777  2.220446049250313e-16 
C  1.1334294628717854  3.0690578319307615  -1.0185523904670242 
H  0.3221622212900439  3.5551084816264806  -0.7580884031928918 
H  1.9005022196288306  3.6517017963897667  -0.8421312564703933 
C  1.0713418867528632  2.7628689461811202  -2.520243483580084 
H  1.8020549309557308  2.1714826292073117  -2.759422770158043 
H  1.1482001364082122  3.5902179233953664  -3.021767510285165 
H  0.2271976443010857  2.334948539277545  -2.72840208487011 
C  2.9026807384261053  0.8850209834157545  -0.4987984214796516 
H  3.4192369773462277  1.5895851688915  -0.9440251733461563 
H  3.396342693265251  0.616952464325681  0.30606778070383134 
C  2.7898382015347996  -0.3357339913275559  -1.4502202961006947 
H  2.100539474580947  -0.1602913583891299  -2.1238731277339102 
H  3.6423637007246707  -0.4676462291806791  -1.9147213668590386 
C  2.441363450969936  -1.5645618363615554  -0.6946083020932767 
C  3.2923657526898737  -2.6436509289537575  -0.631118202739795 
H  4.092494779756845  -2.6306471170671117  -1.1255857253550872 
C  2.99776230748265  -3.73296019934217  0.1383357487855137 
H  3.570151696686565  -4.4786434589438056  0.15119823208604188 
C  1.8489578135441735  -3.7210895367698433  0.8940706044570648 
H  1.6383593747032887  -4.442051588365456  1.4597225802485692 
C  1.002867095790924  -2.617766282402239  0.8032195521599896 
H  0.2156221855832976  -2.604616421268553  1.3159910339180614 
C  1.4861897887239217  2.1728795712365097  1.6941054312207566 
C  1.630638804965188  1.2309901803873706  2.6919403259366987 
H  1.592329604256799  0.31590354721846214  2.4801357014907923 
C  1.8350171254912913  1.6303095104807772  4.012058473949489 
H  1.96665213278175  0.9833998560348771  4.682116392222482 
C  1.8455864245429343  2.940398285768894  4.334584350092266 
H  1.967099972716249  3.2095640536924783  5.2270536588017364 
C  1.6809623643565055  3.864871048778907  3.361789197318326 
H  1.6953992222763274  4.777240755826173  3.5897111901050893 
C  1.4897340937106724  3.5066758730077474  2.04500123239759 
H  1.36384812278758  4.168529980747023  1.3893815237299811 
Br  -1.5839191898578664  1.5839191898578664  0.0 
C  -1.2937473829822488  -1.2398794889499034  -0.4598005675376139 
C  -1.601562203225019  -1.4938654694550033  -1.7919791134336869 
H  -1.1309417375171225  -1.0428217585005106  -2.480879663633267 
C  -2.60218398542082  -2.411889969420291  -2.121542410022959 
H  -2.8231586547736818  -2.5626138747145775  -3.03270050271447 
C  -3.2683208079706407  -3.09759503004543  -1.143064365570095 
H  -3.9596020908062854  -3.707191723557817  -1.3683280760515548 
C  -2.9347449854640226  -2.896087320001541  0.14198826503765638 
H  -3.3668350933519986  -3.405606940434718  0.8171022443470677 
C  -1.9675509241539992  -1.9516175659140573  0.5112421903797603 
H  -1.7755298364628027  -1.8022912010877177  1.4301324877763764 

-Ni 0
lanl2dz
F 1 1.0
3.130 1.0
****
-H 0
6-31g(d,p)
****
-P 0
6-31+g(d)
****
-N 0
6-31+g(d)
****
-C 0
6-31g(d)
****
-Br 0
6-31+g(d)
****

-Ni 0
lanl2dz


