%chk=IFIYOKAM_PN_Pd_gaussain.chk
%nprocshared=32
%mem=64GB
#p opt rwb97xd/gen pseudo=read

This Gaussian input file was generated using the DART python program. This file was generated on the 2023-10-04 at 09:55:46

0 1
Pd  0.0  0.0  0.0 
P  1.6229630664312726  -1.3631180744895142  2.6607632965250287e-16 
N  1.6229630664312726  1.3631180744895137  -2.779561211408643e-16 
N  3.9534859251200487  1.7002164804160018  -0.2210105876446884 
N  3.0430912056637247  -0.44970840125465283  -0.17942323428475226 
C  2.864000375025281  0.9280171789034042  -0.134963362946928 
C  1.4346736816584946  2.832773233122955  0.004393436468022052 
H  0.6297229359549662  3.0522235548509737  0.5004884508400955 
H  1.3212124066307256  3.145511243848585  -0.9071400438367105 
C  2.616800381133993  3.536479953730584  0.6328802444113976 
H  2.4868014747213216  4.496852715635496  0.5953656802710324 
H  2.6991779745005298  3.2767305221689798  1.5641599955681542 
C  3.856528409395711  3.162711481626064  -0.10793144907288033 
H  3.8396692726373916  3.558445600405186  -0.9938178451428883 
H  4.632790622220601  3.5061525185848925  0.3615285823173106 
C  5.29165110795901  1.1985520921302757  -0.5849773511870774 
H  5.869131054371983  1.2382267182775757  0.19420879828619522 
H  5.673080299754186  1.772596585886285  -1.2685569813947775 
C  5.246074048215867  -0.20741141966434654  -1.0919218798362356 
H  6.143194094020338  -0.5769904931343129  -1.1185358210868115 
H  4.886693491692786  -0.21978699835830343  -1.9926770966655232 
C  4.37821708166751  -1.0392241813171679  -0.18415824035455328 
H  4.3382598219059565  -1.9531988899766302  -0.5050465532037492 
H  4.744219628456559  -1.0444695156237196  0.7145202795912451 
C  1.8384406460808806  -2.2779776624727655  1.5498514338295502 
C  2.5145398104653536  -3.4914020612501315  1.659278982328162 
H  2.856202994879668  -3.899215507791204  0.8968112051492353 
C  2.6861473073920092  -4.102803458236311  2.907469808589113 
H  3.1227547385714765  -4.921236417844597  2.9719308950343017 
C  2.198971185507104  -3.4798071889527193  4.043534210251232 
H  2.31489105129615  -3.8757452482452877  4.876848081442094 
C  1.5427680109098867  -2.2718709464400266  3.9392144725556686 
H  1.2286736923093553  -1.8529306978384052  4.706389893906286 
C  1.3485348113075175  -1.6753099623121213  2.7080239323107382 
H  0.8890946300520531  -0.8682819318078848  2.651121490988773 
C  1.7289282374927335  -2.5379197112440703  -1.3745589244556895 
C  1.2776478633079447  -3.857203989440936  -1.2637342558199713 
H  0.9337756743301917  -4.162614326073665  -0.4549928855874672 
C  1.3393511621966823  -4.713868699456842  -2.3558710272545986 
H  1.070706202810731  -5.599839762860338  -2.272385216435019 
C  1.8040529644694216  -4.238843720243288  -3.5706910814551027 
H  1.8425865052321093  -4.805487728899155  -4.3073929571760035 
C  2.2119202841697807  -2.9179588910444005  -3.691461348957755 
H  2.498156708989833  -2.597774911264476  -4.51464322327141 
C  2.1966963790125758  -2.078650025282016  -2.6039126739254868 
H  2.4989601006165696  -1.2038759266064039  -2.6877096242779626 
Br  -1.654629867976521  1.654629867976521  0.0 
C  -1.352040782177733  -1.3199206589279684  -0.4819701001757076 
C  -1.6380700204479186  -1.599217458033982  -1.8139382277462257 
H  -1.1579680913617836  -1.159339363685303  -2.503515938957912 
C  -2.63068216563725  -2.52632649780156  -2.142289956238523 
H  -2.8368222554424674  -2.694399528648736  -3.0538898079700485 
C  -3.3101544432602585  -3.1961573187854975  -1.1619874135498987 
H  -3.9960123560788676  -3.811990145619169  -1.3868663427944008 
C  -2.9974710358883443  -2.9701089012107795  0.12423560353005347 
H  -3.438659168087169  -3.468581175155742  0.8017084178296768 
C  -2.0389854250767776  -2.015940632791841  0.4912562833419403 
H  -1.8619130127668426  -1.8492165108145995  1.4101568590026907 

-Pd 0
lanl2dz
F 1 1.0
1.472 1.0
****
-P 0
6-31+g(d)
****
-N 0
6-31+g(d)
****
-C 0
6-31g(d)
****
-H 0
6-31g(d,p)
****
-Br 0
6-31+g(d)
****

-Pd 0
lanl2dz


