%chk=INAGEGEK_PN_Pd_gaussain.chk
%nprocshared=32
%mem=64GB
#p opt rwb97xd/gen pseudo=read

This Gaussian input file was generated using the DART python program. This file was generated on the 2023-10-04 at 16:41:16

0 1
Pd  0.0  0.0  0.0 
P  1.4869496015332848  1.510324760606142  2.5356504244280723e-15 
N  1.4869496015332861  -1.510324760606142  -5.551115123125783e-17 
N  1.315739112065626  -2.702143524987379  0.6396403529836414 
C  2.4109635971041774  1.0677182679921187  -1.492420530107086 
C  2.7919206870497844  -0.27819404373094847  -1.700953368701974 
C  3.5815134377565165  -0.5868142406301455  -2.814491276497327 
H  3.8780719141510698  -1.4805549480646616  -2.945211427786277 
C  3.9347383692286577  0.3860373594524187  -3.7233070069968472 
H  4.442700915397463  0.15021682979556483  -4.490603963515049 
C  3.560285063204198  1.7004174562226646  -3.532056535568377 
H  3.805238195986722  2.366338029223373  -4.165247480856188 
C  2.8195426295621804  2.0422701348431147  -2.401085937753309 
H  2.591830352256051  2.9518345714671135  -2.248439763897162 
C  2.4890777154623898  -1.391496281009492  -0.8101292092682937 
H  3.1010449689724684  -2.117755168243642  -0.8255846078317992 
C  0.8836190858542089  3.190342771422354  -0.3123976187226306 
C  -0.06310581109767388  3.3884738044327003  -1.321093610213482 
H  -0.41491255815705963  2.645565822476759  -1.7966170618640391 
C  -0.485287976004358  4.671771874194954  -1.623142635669913 
H  -1.1331640661518831  4.807763212188757  -2.3046293837478355 
C  0.027320404934593423  5.74942043856517  -0.9452425622800682 
H  -0.25158517273519654  6.6274973062633205  -1.178722739507365 
C  0.9389701658304537  5.5753127420890385  0.07028234804282685 
H  1.2660092055962835  6.3259931616730904  0.5511872389746686 
C  1.3844358789269922  4.2779243418527875  0.3902757032673101 
H  2.0224875300548746  4.148088415094028  1.0826533333332278 
C  2.7174321453846733  1.6833433635025987  1.3081658657558914 
C  2.2835494433949846  1.9866911479990466  2.598353887927547 
H  1.351279077869168  2.023566465449081  2.7800300738335024 
C  3.1770931417733723  2.232271254128764  3.608979936751589 
H  2.867323137956591  2.448268984225618  4.480612614734884 
C  4.532784566899938  2.1627677885576437  3.348835730373753 
H  5.158460693705198  2.363100394426179  4.034570585381088 
C  4.975936672530741  1.8010737051071655  2.0910098396909627 
H  5.908165026206758  1.7110634049744704  1.9312809053286033 
C  4.080244861654096  1.5695776857611816  1.065350357720681 
H  4.3945282986050795  1.3349913012687458  0.19949616129437703 
C  1.9345079211307248  -3.9644257471465894  0.1827262663667169 
H  2.9225365647869292  -3.9313157821216302  0.33610885837417775 
C  1.2894421858921512  -4.9459592978546185  1.1646975775849369 
H  0.39631350194800485  -5.2306702595072805  0.8439875337275238 
H  1.8569513872393084  -5.748397939934225  1.2861569209215182 
C  1.176673525341791  -4.159538959010861  2.4597332411288244 
H  2.0325894040515506  -4.180851597086847  2.9553543867942893 
H  0.4656169054459416  -4.537239275445492  3.036034442123129 
C  0.8306128300443071  -2.733045047770644  2.0442839826569674 
H  -0.16448258783764635  -2.6372907346771064  2.03679593656209 
C  1.6446231806956377  -4.317127615575345  -1.293919053021051 
H  2.197078024232867  -3.699885540019448  -1.856158171204513 
C  2.127834215519721  -5.733728333384765  -1.581122851961947 
H  1.5003293478195954  -6.37865717942254  -1.1915686393534362 
H  3.015538087560325  -5.863505041091879  -1.1879341673576653 
H  2.1769951294576284  -5.872097047485784  -2.5510649809051142 
C  0.20087840529127177  -4.119945183182143  -1.707885660186581 
H  0.08872849806912897  -4.393548116655973  -2.643037777814822 
H  -0.040416984697133174  -3.1753163376433715  -1.6127015283870512 
H  -0.3799123702135385  -4.664761428311939  -1.137152776841678 
C  1.4075879003942557  -1.6687341015905146  2.954465990848641 
H  1.0949544853745767  -0.7816236535950213  2.6156433368386662 
C  2.930081694990897  -1.6333611563846386  2.9872707185902323 
H  3.2673398619840657  -2.459727112603952  3.39472666123698 
H  3.2274691626714427  -0.8639855092995383  3.516932278210101 
H  3.274851241347942  -1.5557266018448959  2.0741844105961866 
C  0.8498620901755334  -1.8443605641359242  4.360191432131463 
H  -0.12819161308546878  -1.7789993301981444  4.334127038112154 
H  1.2087580200107635  -1.143211253324783  4.944384598384504 
H  1.108475800108238  -2.723085239527836  4.708022431170104 
Br  -1.654629867976521  1.654629867976521  0.0 
C  -1.352040782177733  -1.3199206589279684  -0.4819701001757076 
C  -1.6380700204479186  -1.599217458033982  -1.8139382277462257 
H  -1.1579680913617836  -1.159339363685303  -2.503515938957912 
C  -2.63068216563725  -2.52632649780156  -2.142289956238523 
H  -2.8368222554424674  -2.694399528648736  -3.0538898079700485 
C  -3.3101544432602585  -3.1961573187854975  -1.1619874135498987 
H  -3.9960123560788676  -3.811990145619169  -1.3868663427944008 
C  -2.9974710358883443  -2.9701089012107795  0.12423560353005347 
H  -3.438659168087169  -3.468581175155742  0.8017084178296768 
C  -2.0389854250767776  -2.015940632791841  0.4912562833419403 
H  -1.8619130127668426  -1.8492165108145995  1.4101568590026907 

-Pd 0
lanl2dz
F 1 1.0
1.472 1.0
****
-H 0
6-31g(d,p)
****
-P 0
6-31+g(d)
****
-N 0
6-31+g(d)
****
-C 0
6-31g(d)
****
-Br 0
6-31+g(d)
****

-Pd 0
lanl2dz


