%chk=JORIYECA_PN_Ni_gaussain.chk
%nprocshared=32
%mem=64GB
#p opt rwb97xd/gen pseudo=read

This Gaussian input file was generated using the DART python program. This file was generated on the 2023-08-13 at 16:51:13

0 1
Ni  0.0  0.0  0.0 
P  1.3792073275979986  -1.4757666304331458  -3.3447452691809855e-15 
N  1.3792073275979948  1.4757666304331458  -1.2909523126499993e-15 
H  1.5358248844508695  1.8630570313769912  -0.7979980866030995 
H  1.1399052046085538  2.126744434232676  0.5730802848581507 
C  2.648852865900072  0.8711260411970932  0.4821491210382285 
H  2.5970021008793767  0.7068313281984431  1.4370466419521175 
H  3.3882346561991126  1.476334823250835  0.31613337389593826 
C  2.8690644291381693  -0.4424655423387303  -0.2630087609439022 
H  3.656479494763829  -0.8945939386856265  0.07847056147919518 
H  2.9981214670913516  -0.27328355255033204  -1.210263903598721 
C  1.7953282812943758  -2.2982454153367904  1.5973527006513912 
C  2.9075322355587314  -3.1409715275507395  1.7055014589036388 
H  3.4165621473197723  -3.329584252123799  0.9490746620080717 
C  3.2614131730285587  -3.69852859858879  2.9206202574706652 
H  4.009268929579553  -4.2473693795747876  2.978429638372002 
C  2.5169841879816968  -3.4461522049779085  4.029102960163924 
H  2.7540547384588865  -3.828472362084591  4.843993377070628 
C  1.4143693846734766  -2.6291452608338193  3.9479188561414813 
H  0.9086730302610051  -2.448324269562537  4.708511740837124 
C  1.0583184323957424  -2.075292982875683  2.727028962013947 
H  0.30186164559932704  -1.5396975820174796  2.674377311620126 
C  1.5274745303779855  -2.8653838488398904  -1.1753362424801366 
C  2.020571240657212  -2.7049311457383847  -2.452794075200741 
H  2.381958266795296  -1.8846977531153788  -2.7032387576462615 
C  1.9898813063789684  -3.7341187209813698  -3.371610151953574 
H  2.359175066508674  -3.6120198665391112  -4.2162563491706075 
C  1.4227923999905663  -4.936352785915646  -3.048905433421552 
H  1.3841923669469292  -5.621424855680001  -3.6764062355547704 
C  0.9058604646289626  -5.123698911175879  -1.789025310730008 
H  0.5059851503438947  -5.933662143403977  -1.5690876025850966 
C  0.9795397630193768  -4.100508320698298  -0.8390539656111876 
H  0.6621170806658386  -4.246359389262453  0.022577920130165373 
Br  -1.5839191898578664  1.5839191898578664  0.0 
C  -1.2937473829822488  -1.2398794889499034  -0.4598005675376139 
C  -1.601562203225019  -1.4938654694550033  -1.7919791134336869 
H  -1.1309417375171225  -1.0428217585005106  -2.480879663633267 
C  -2.60218398542082  -2.411889969420291  -2.121542410022959 
H  -2.8231586547736818  -2.5626138747145775  -3.03270050271447 
C  -3.2683208079706407  -3.09759503004543  -1.143064365570095 
H  -3.9596020908062854  -3.707191723557817  -1.3683280760515548 
C  -2.9347449854640226  -2.896087320001541  0.14198826503765638 
H  -3.3668350933519986  -3.405606940434718  0.8171022443470677 
C  -1.9675509241539992  -1.9516175659140573  0.5112421903797603 
H  -1.7755298364628027  -1.8022912010877177  1.4301324877763764 

-Ni 0
lanl2dz
F 1 1.0
3.130 1.0
****
-C 0
6-31g(d)
****
-N 0
6-31+g(d)
****
-H 0
6-31g(d,p)
****
-Br 0
6-31+g(d)
****
-P 0
6-31+g(d)
****

-Ni 0
lanl2dz


