%chk=URICAPIW_PN_Ni_gaussain.chk
%nprocshared=32
%mem=64GB
#p opt rwb97xd/gen pseudo=read

This Gaussian input file was generated using the DART python program. This file was generated on the 2023-10-04 at 09:55:46

0 1
Ni  0.0  0.0  0.0 
P  1.2082080884516542  1.6187443328086117  0.0 
N  1.2082080884516542  -1.6187443328086122  0.0 
C  2.1231512715455363  -1.7555464797021711  0.9923011560586817 
C  2.9956380202944564  -2.8410157934086397  1.0263104527165325 
H  3.6242048953735164  -2.9265081050696704  1.7341419073724018 
C  2.9437090924000326  -3.791085380575392  0.024894527144870504 
H  3.532016698808781  -4.537089156789246  0.03800277326338686 
C  2.0205615897615945  -3.6420463877522278  -0.9991349875619674 
H  1.9696173096734917  -4.27752694150662  -1.7047950162771608 
C  1.1802718346539005  -2.5517410293156955  -0.9693309135845323 
H  0.5469769888157434  -2.4528406861575975  -1.6700658209197274 
C  2.2133350397995395  -0.675994891732774  2.0335475807134284 
H  2.5067287378326313  -1.0708802556808408  2.89290382075251 
H  1.318246555014126  -0.27513068986457223  2.171441112342535 
C  3.208837984027313  0.42641786044270313  1.608286399937703 
H  3.184354473787348  1.1513341064591396  2.2821623855521103 
H  4.122250832095554  0.045466092766053956  1.611539043158829 
C  2.937636699148346  1.0347665323366666  0.2231114050417894 
H  3.137991934239998  0.35623575836677834  -0.46913287882569776 
H  3.5530508363745312  1.7974090942154985  0.08432342820997618 
C  0.998758323051564  2.783596639490286  1.3805363049888533 
C  0.06578023903099872  2.538551278119498  2.387743401671582 
H  -0.49626026587257344  1.7751554193949057  2.334656268297419 
C  -0.04560887733987862  3.406983726967619  3.46894606840053 
H  -0.6945495238622883  3.2398039880088074  4.141837911249552 
C  0.776188970936816  4.503580712064137  3.5680490897724364 
H  0.6925336649967904  5.090187327917086  4.310518623171365 
C  1.7256672826893606  4.757634268678888  2.5924433364668547 
H  2.3022947731361203  5.5078916844950205  2.669586886255433 
C  1.8282355865673434  3.9008846066777725  1.495137385648836 
H  2.469156841997985  4.081521581939123  0.817296587595437 
C  1.3046699398755477  2.657212586212993  -1.4995089522544336 
C  0.5983022611410136  3.852913674254326  -1.6117203620841316 
H  0.1215091973012854  4.191553025070704  -0.8631846285663494 
C  0.5876429490790709  4.552744115071652  -2.8138761602949494 
H  0.09570305155174741  5.362543589535656  -2.8867417789270093 
C  1.2933045856451926  4.071974802570211  -3.905396019406872 
H  1.2876411373958532  4.5535310027686045  -4.723582252121915 
C  2.008789678410838  2.8880013138879823  -3.8024704145857724 
H  2.4940537291592095  2.561205689478192  -4.550415787536171 
C  2.016834925328485  2.1796734255607495  -2.607437119392734 
H  2.5061902718279825  1.3684869223025786  -2.5409383089962376 
Br  -1.5839191898578664  1.5839191898578664  0.0 
C  -1.2937473829822488  -1.2398794889499034  -0.4598005675376139 
C  -1.601562203225019  -1.4938654694550033  -1.7919791134336869 
H  -1.1309417375171225  -1.0428217585005106  -2.480879663633267 
C  -2.60218398542082  -2.411889969420291  -2.121542410022959 
H  -2.8231586547736818  -2.5626138747145775  -3.03270050271447 
C  -3.2683208079706407  -3.09759503004543  -1.143064365570095 
H  -3.9596020908062854  -3.707191723557817  -1.3683280760515548 
C  -2.9347449854640226  -2.896087320001541  0.14198826503765638 
H  -3.3668350933519986  -3.405606940434718  0.8171022443470677 
C  -1.9675509241539992  -1.9516175659140573  0.5112421903797603 
H  -1.7755298364628027  -1.8022912010877177  1.4301324877763764 

-Ni 0
lanl2dz
F 1 1.0
3.130 1.0
****
-P 0
6-31+g(d)
****
-N 0
6-31+g(d)
****
-C 0
6-31g(d)
****
-H 0
6-31g(d,p)
****
-Br 0
6-31+g(d)
****

-Ni 0
lanl2dz


