%chk=FOKEJAPA_PN_Ni_gaussain.chk
%nprocshared=32
%mem=64GB
#p opt rwb97xd/gen pseudo=read

This Gaussian input file was generated using the DART python program. This file was generated on the 2023-10-04 at 16:41:16

0 1
Ni  0.0  0.0  0.0 
C  2.942016797852393  -1.1098037344470169  0.7686939800701108 
H  2.779237905627863  -1.1294945848748168  1.7343040269604721 
C  3.4494828053273907  0.3180461307046967  0.46469188493978986 
H  4.280736840505497  0.4482868574398726  0.9482850012055257 
H  3.6618476129031987  0.36141894469968827  -0.48253524595832165 
C  2.5655777267808624  1.4670191847184557  0.777363411097802 
H  3.0649920907545147  2.2870906700954228  0.5758104356089346 
C  4.015832911085666  -2.1197134596349447  0.5278230770297847 
H  4.13304474278215  -2.239721446669545  -0.41913012643820025 
H  3.767074758535662  -2.954079125982538  0.927055060167726 
H  4.837357668132989  -1.8104129957666086  0.9141404939412807 
C  1.5413862326946128  -1.9747824753902279  -1.6853718682033765 
C  0.5011445850296614  -2.6887849456735364  -2.281821595248892 
H  -0.24983940282079087  -2.9090502344618  -1.7840277196866516 
C  0.5703671151168224  -3.0593830255664365  -3.6061921304496964 
H  -0.10399388289978484  -3.571120031060048  -3.991468085529271 
C  1.629421700115844  -2.680222874781768  -4.311800418417976 
H  1.6922169989833655  -2.969670752720848  -5.194540038236132 
C  2.617688339209037  -1.8954777860681165  -3.8293263923862506 
H  3.293636918795837  -1.5754773900062724  -4.38012947360028 
C  2.585060302729898  -1.5877155042768991  -2.464536610353071 
H  3.2885716669280782  -1.1118933663943515  -2.085232123766228 
C  0.9009191572342187  -2.9950239809296444  0.9266973145760649 
C  0.2936986454790249  -2.8876605852970036  2.0760121937027574 
H  0.03747659557045635  -2.0459888304833043  2.374284516068549 
C  0.011533792677912658  -4.019896616713156  2.8938375570944537 
H  -0.40626007109103157  -3.9476871903539217  3.7216278905376114 
C  0.39192231912270437  -5.172701027853796  2.3882370739025935 
H  0.17473010195488836  -5.943007525588909  2.8751965592284128 
C  1.0438847811271883  -5.340962771956463  1.242787300403713 
H  1.3234196871357584  -6.188664811439693  0.9815134429691141 
C  1.3116505284561077  -4.207024035788336  0.4181408991050509 
H  1.73822063424613  -4.286045823700368  -0.4026167032852614 
C  2.183226980207166  1.521262577418848  2.20806198555118 
H  1.6873742503895317  2.3257601455321804  2.3771004226953147 
H  2.9760541697545904  1.5132991794563178  2.750067236270442 
H  1.6403859072228864  0.7590627357107755  2.421716357800996 
C  1.6028409449597523  1.9170429410922534  -1.367394343901138 
H  0.7581477322896607  1.9032004742026705  -1.8456093923673071 
H  2.1704933397166624  1.2440383879764418  -1.7742114283655737 
C  2.2308730325844466  3.240806338704027  -1.6182039809909323 
C  3.416619584925534  3.362496778796007  -2.2354306900707224 
H  3.851936833809034  2.610837887851561  -2.5646785518537234 
C  3.999923958169835  4.653556781346934  -2.396917432459329 
H  4.802829114025767  4.765920273370506  -2.8521757397533793 
C  3.350657259713447  5.690663870339577  -1.8607956736798708 
H  3.7368572749016096  6.533664021124373  -1.9226710649553354 
C  2.2149831104144866  5.583386592406606  -1.266778988515725 
H  1.8192139491617092  6.340563371679764  -0.9020646401130282 
C  1.5747683737272375  4.369327677054152  -1.151586015719202 
H  0.7270179048521958  4.307645007397342  -0.7717551049362841 
N  1.3410881029969672  1.5104908804756154  1.3509035302229519e-15 
H  0.9008052613662395  2.3060937043877994  0.36598767185321746 
P  1.3410881029969657  -1.5104908804756154  -6.661338147750939e-16 
Br  -1.5839191898578664  1.5839191898578664  0.0 
C  -1.2937473829822488  -1.2398794889499034  -0.4598005675376139 
C  -1.601562203225019  -1.4938654694550033  -1.7919791134336869 
H  -1.1309417375171225  -1.0428217585005106  -2.480879663633267 
C  -2.60218398542082  -2.411889969420291  -2.121542410022959 
H  -2.8231586547736818  -2.5626138747145775  -3.03270050271447 
C  -3.2683208079706407  -3.09759503004543  -1.143064365570095 
H  -3.9596020908062854  -3.707191723557817  -1.3683280760515548 
C  -2.9347449854640226  -2.896087320001541  0.14198826503765638 
H  -3.3668350933519986  -3.405606940434718  0.8171022443470677 
C  -1.9675509241539992  -1.9516175659140573  0.5112421903797603 
H  -1.7755298364628027  -1.8022912010877177  1.4301324877763764 

-Ni 0
lanl2dz
F 1 1.0
3.130 1.0
****
-H 0
6-31g(d,p)
****
-P 0
6-31+g(d)
****
-N 0
6-31+g(d)
****
-C 0
6-31g(d)
****
-Br 0
6-31+g(d)
****

-Ni 0
lanl2dz


