%chk=QOSOREQO_PN_Ni_gaussain.chk
%nprocshared=32
%mem=64GB
#p opt rwb97xd/gen pseudo=read

This Gaussian input file was generated using the DART python program. This file was generated on the 2023-10-04 at 09:55:46

0 1
Ni  0.0  0.0  0.0 
P  1.3831348858661612  1.4720862364345373  -6.57052796040718e-16 
P  2.5487761924251497  1.093525238303243  -2.736465023554566 
N  1.3831348858661618  -1.4720862364345373  -3.3306690738754696e-16 
N  0.5611982193220341  0.8984807613604895  2.7616473136799278 
N  -0.15862967384435578  1.7184908124861065  -3.9401535905751186 
N  4.8093546309928  -1.024554509899509  -2.7058086484172206 
C  2.8109980035894946  0.4887835642310874  0.48731483856231916 
C  4.020878618987346  1.0547369400454594  0.9097914448837624 
C  5.07444836124548  0.23563687297298186  1.2745874540724573 
C  4.936128179024067  -1.1362240887131487  1.219379402197362 
C  3.746316845635951  -1.7042331491233695  0.791818695123932 
C  2.6731720861700627  -0.8874260217689995  0.4308477517863587 
C  1.5988282193027228  -2.2623087153957617  -1.2477332365756082 
C  0.8714813539662243  -2.3771016370450333  1.0664594309921855 
C  1.1782520389625966  2.732253368010388  1.2779393098033323 
C  1.441813861537889  4.0778988920102925  1.0465815361716273 
C  1.3122101450023829  4.998589862046593  2.0744341444544743 
C  0.8925937935510309  4.591951038732915  3.321292257861425 
C  0.6055487942375652  3.258347587786378  3.560327849338135 
C  0.7733343090833417  2.3064160974179346  2.5504296323613644 
C  -0.8473832754825104  0.5922872016056462  3.0465468862645424 
C  1.4475854993546868  0.35933350533946307  3.8041036418401712 
C  1.8204691035742804  2.3403163532350604  -1.543807629305625 
C  2.2362164051925104  1.9076947722178397  -4.364811251925684 
C  3.2905773758196655  2.212148097646326  -5.235596975426995 
C  3.0495137326609094  2.7225228714909098  -6.510881261447247 
C  1.7547691245714776  2.9457663791511446  -6.919494900611278 
C  0.6907250193190513  2.637152142596395  -6.077542208903893 
C  0.9191134420876246  2.086313091914149  -4.812409331065048 
C  -0.48026614798604994  0.28738981251851126  -3.980162794434363 
C  -1.3639477748255295  2.5222657108003723  -4.058396046093607 
C  4.354714142947898  1.3746857537377646  -2.484589472096399 
C  4.824195985648437  2.6644582059268678  -2.2212905717025286 
C  6.126290469891077  2.8898086621633703  -1.7858975584616639 
C  6.966101495767126  1.8122336697892458  -1.6058089507516158 
C  6.552848755782096  0.5318312053485568  -1.9228192217982962 
C  5.247045094123479  0.2809895183191562  -2.385369170719731 
C  4.37330641615206  -1.2228866984451643  -4.083626774049535 
C  5.669725626243509  -2.1264801782821405  -2.289798057337127 
H  4.12004180988289  2.0298847774961057  0.9492512559165033 
H  5.923028243376678  0.628925979052974  1.5674122185324064 
H  5.6801398322495  -1.7143924248708444  1.4856116221284017 
H  3.658063598976118  -2.6767803406979485  0.7372625349364924 
H  1.9511856191089096  -1.6763430065598182  -1.9471156504739193 
H  2.237472598074664  -2.982655434055648  -1.0685668826501593 
H  0.7453373802469181  -2.6453035128782476  -1.5392581115849087 
H  0.016377531947328494  -2.7633569398438547  0.7852610941754715 
H  1.5184896998107682  -3.0967091089318255  1.2239816732699547 
H  0.74263469344373  -1.8684605252216242  1.8943844743597928 
H  1.7223578098803634  4.374400736941041  0.15585790956172835 
H  1.5204329485633157  5.940835496622693  1.911440193034439 
H  0.7947297823498249  5.24461955177266  4.042971298292908 
H  0.28808359575564624  2.976274887340702  4.4439303048667185 
H  -1.4042329354223857  0.8763071792753405  2.2863714798553505 
H  -0.9542356373707817  -0.3692274841292358  3.1845675074595317 
H  -1.1319955616652964  1.0737767043651676  3.851122839973216 
H  1.2787394684368891  0.8257038734660114  4.6497401107657055 
H  1.2715100344147188  -0.5971456839574165  3.918954114578242 
H  2.3817675320481975  0.49093418552054846  3.5394655289982864 
H  1.0190873487238776  2.745559962770384  -1.9356132953234786 
H  2.4795025593190516  3.0421982161499224  -1.3546019879513693 
H  4.216869701589968  2.0603850219034907  -4.945951077717142 
H  3.797879957697864  2.923758164416069  -7.109304389430508 
H  1.5828756845649061  3.320369473964145  -7.811002358033429 
H  -0.22804672285653282  2.810333902394294  -6.369455438910618 
H  -0.9249635756240773  0.0755303831719143  -4.829330057138877 
H  0.3441354295932799  -0.23707233575206255  -3.9061366239528943 
H  -1.0776650309417706  0.06439890554891226  -3.2366326201628994 
H  -1.1254265807218164  3.4719368580464853  -4.030740268187563 
H  -1.8068370062809809  2.3230041779227477  -4.910668696233278 
H  -1.969505514047552  2.3133001030890608  -3.3184189050533086 
H  4.21919814784974  3.4256450761431014  -2.3474942755678554 
H  6.440712550016246  3.801867984348131  -1.602594917057814 
H  7.869657919216725  1.954137309555589  -1.2524505821454186 
H  7.179474744880303  -0.21540229414005618  -1.8251913209261015 
H  5.152852255062957  -1.2510765992627353  -4.672491023710377 
H  3.879139457615105  -2.067104954306336  -4.150647394466443 
H  3.786797664932533  -0.4827452155392806  -4.352291193027581 
H  5.9561382335472155  -1.9902911629663147  -1.3626205767624429 
H  5.175701307947217  -2.9721522382391794  -2.3572137820599863 
H  6.458366774734864  -2.16466746215768  -2.8724826892405866 
Br  -1.5839191898578664  1.5839191898578664  0.0 
C  -1.2937473829822488  -1.2398794889499034  -0.4598005675376139 
C  -1.601562203225019  -1.4938654694550033  -1.7919791134336869 
H  -1.1309417375171225  -1.0428217585005106  -2.480879663633267 
C  -2.60218398542082  -2.411889969420291  -2.121542410022959 
H  -2.8231586547736818  -2.5626138747145775  -3.03270050271447 
C  -3.2683208079706407  -3.09759503004543  -1.143064365570095 
H  -3.9596020908062854  -3.707191723557817  -1.3683280760515548 
C  -2.9347449854640226  -2.896087320001541  0.14198826503765638 
H  -3.3668350933519986  -3.405606940434718  0.8171022443470677 
C  -1.9675509241539992  -1.9516175659140573  0.5112421903797603 
H  -1.7755298364628027  -1.8022912010877177  1.4301324877763764 

-Ni 0
lanl2dz
F 1 1.0
3.130 1.0
****
-P 0
6-31+g(d)
****
-N 0
6-31+g(d)
****
-C 0
6-31g(d)
****
-H 0
6-31g(d,p)
****
-Br 0
6-31+g(d)
****

-Ni 0
lanl2dz


