%chk=EYUKIWEQ_PN_Pd_gaussain.chk
%nprocshared=32
%mem=64GB
#p opt rwb97xd/gen pseudo=read

This Gaussian input file was generated using the DART python program. This file was generated on the 2023-08-13 at 16:51:13

0 1
Pd  0.0  0.0  0.0 
P  1.4608292045957993  -1.535603475836128  1.2686397281943328e-15 
N  1.4608292045958011  1.535603475836128  3.11543172937094e-16 
N  2.75890859029026  -1.0433422300816497  -1.002089658844665 
C  2.647172295203946  1.4113331951270447  -0.49636328298821664 
H  3.18039643144465  2.198640686301946  -0.4864358024294055 
C  3.2648485478980924  0.25903086067411885  -1.0561131886354278 
C  4.4432255112186905  0.21733590100027644  -1.7680535742388346 
H  5.003880787514721  0.9589777590195749  -1.9581265749388692 
C  4.670818467280569  -1.1070075489861715  -2.1645719380368114 
H  5.403610211172602  -1.4206351798026269  -2.6830420039732505 
C  3.656465172583019  -1.8573647851682562  -1.6746860618927635 
H  3.572616969563708  -2.7973434565593562  -1.7769652688717765 
C  1.1499499658656458  2.8382373793644007  0.549074159203711 
C  0.9597070925878144  3.924058567084826  -0.32179164989916703 
C  0.6911472730393011  5.158885245871499  0.25607533884543143 
H  0.5725522968420154  5.915033947845336  -0.305676832600355 
C  0.592585550951327  5.312295291958906  1.6156459308701911 
H  0.4158762281352866  6.169562412485064  1.9864882683866731 
C  0.752520517488594  4.216365371584335  2.44720049077984 
H  0.6770151498812937  4.329025181048365  3.3863614816616163 
C  1.0196831455963862  2.958995548981743  1.935001945925531 
C  0.9795462901073966  3.7886172710257937  -1.8314074955909372 
H  1.0993702705414385  2.8198248168475017  -2.0544411128779756 
C  2.1566341536845703  4.561458739331149  -2.435311657099192 
H  2.0616549789427854  5.515940018557176  -2.2288154489683296 
H  2.164217279909515  4.436504818596161  -3.407159250032175 
H  2.9958762163287904  4.226217267101676  -2.056510765355104 
C  -0.3408807645168721  4.253087963638444  -2.445319556981037 
H  -1.0803102361618544  3.750138717851233  -2.046842804051945 
H  -0.32292652023017787  4.097469567509273  -3.41262513946173 
H  -0.46438188392434543  5.208017193791143  -2.270617499451437 
C  1.1808827894092204  1.7561796631982787  2.850403038202335 
H  0.9155463211129031  0.9475068452861903  2.3279599674643268 
C  2.628395959752743  1.5758244677600814  3.253885720805394 
H  3.1817115313250413  1.4749685127970527  2.451136342353963 
H  2.7148974928892784  0.7761243209944277  3.8122611232256887 
H  2.9271304543876773  2.361502264134612  3.759848171980643 
C  0.2809525608710166  1.8171372290497303  4.0798177399725315 
H  0.542628303183172  2.5791811247649523  4.639285028460942 
H  0.373272742690238  0.9884577326666438  4.594515910071425 
H  -0.6514880546684623  1.923880875817493  3.7967689944054492 
C  2.2042688190814177  -1.912311391715925  1.604047248595574 
C  3.573883382894939  -2.094094761832358  1.7501222051728187 
H  4.148041808381745  -2.0327151632034353  0.9957114302532903 
C  4.094696761903617  -2.366000131004991  3.0049954634984126 
H  5.030379953185122  -2.492089022471307  3.108863442212299 
C  3.270249790379881  -2.4569009020676478  4.101120730502886 
H  3.6382320285109278  -2.6451679837389652  4.956810410456451 
C  1.91075497179021  -2.2748605971329448  3.9600602271463985 
H  1.3433341907691956  -2.3368307225575333  4.720341728184265 
C  1.3717594336224557  -2.0004419880121556  2.71576301313219 
H  0.43504944774237586  -1.873865604161392  2.619743476558485 
C  0.985915773856786  -3.0863006821597967  -0.7772071651777831 
C  1.09781361149316  -4.286740143913606  -0.10241832220796734 
H  1.4296031620669494  -4.3057908789896455  0.7858976877924818 
C  0.7210083440263002  -5.469295757113967  -0.7323388426687298 
H  0.7934973474642217  -6.29720268100769  -0.2732961978639029 
C  0.24434767435637683  -5.434889107981297  -2.0204983780079506 
H  -0.01446687909820743  -6.243492217142601  -2.448699474193807 
C  0.1368176420365863  -4.231721139118765  -2.7025925290256145 
H  -0.18388126112173264  -4.218519749359626  -3.5962893102783466 
C  0.4945904186485195  -3.0615202941242203  -2.082318458400827 
H  0.4075252513598633  -2.2349794422881657  -2.5417064936075873 
Br  -1.654629867976521  1.654629867976521  0.0 
C  -1.352040782177733  -1.3199206589279684  -0.4819701001757076 
C  -1.6380700204479186  -1.599217458033982  -1.8139382277462257 
H  -1.1579680913617836  -1.159339363685303  -2.503515938957912 
C  -2.63068216563725  -2.52632649780156  -2.142289956238523 
H  -2.8368222554424674  -2.694399528648736  -3.0538898079700485 
C  -3.3101544432602585  -3.1961573187854975  -1.1619874135498987 
H  -3.9960123560788676  -3.811990145619169  -1.3868663427944008 
C  -2.9974710358883443  -2.9701089012107795  0.12423560353005347 
H  -3.438659168087169  -3.468581175155742  0.8017084178296768 
C  -2.0389854250767776  -2.015940632791841  0.4912562833419403 
H  -1.8619130127668426  -1.8492165108145995  1.4101568590026907 

-Pd 0
lanl2dz
F 1 1.0
1.472 1.0
****
-C 0
6-31g(d)
****
-N 0
6-31+g(d)
****
-H 0
6-31g(d,p)
****
-Br 0
6-31+g(d)
****
-P 0
6-31+g(d)
****

-Pd 0
lanl2dz


