%chk=EHISEHEQ_PN_Pd_gaussain.chk
%nprocshared=32
%mem=64GB
#p opt rwb97xd/gen pseudo=read

This Gaussian input file was generated using the DART python program. This file was generated on the 2023-08-13 at 16:51:13

0 1
Pd  0.0  0.0  0.0 
P  1.5720736043519077  -1.4215078552368257  9.17804001807961e-16 
N  1.5720736043519083  1.4215078552368257  9.361385201372968e-16 
C  2.8433449079276985  0.9620799156766913  0.007514722634161523 
C  1.6314105730020618  -2.9781408044310114  1.012667583975334 
C  3.0335732355940577  -0.44747484521921893  0.4824632455173752 
H  3.1374553038261253  -0.4617809779114031  1.4475608263180135 
H  3.832007186514055  -0.8277757440207487  0.08434503142885662 
C  1.1872923768733723  -2.640409751288138  2.4321610935097824 
H  1.7911263719178792  -1.995943822644097  2.810264694716619 
H  1.1931830933160363  -3.4366405043087984  2.9667526080364737 
H  0.3008363889354819  -2.2738400393584155  2.4109276824597745 
C  0.7075696047992943  -2.348103311707628  -2.4764792821271935 
H  -0.09687702642724338  -2.5247251883121513  -2.0453731928487104 
C  3.0850407494430536  -3.4847392184651182  0.9959171500009272 
H  3.3874184331720105  -3.55902349316046  0.08771151639380458 
H  3.128489178210015  -4.345936548814059  1.418581357425134 
H  3.645297441946963  -2.866822668258183  1.4704392100623225 
C  0.8388752743538945  -2.604546298397468  -3.8291323587586317 
H  0.12092753541854373  -2.945755506783582  -4.309898684815431 
C  1.7786118519529723  -1.825535794923669  -1.7597936430815837 
C  2.96328953383645  -1.5518215318848787  -2.434058192243355 
H  3.6856184382252613  -1.1892239119694223  -1.9740293019374087 
C  1.3513256731637746  2.6913588225389153  -0.38817085377203503 
H  0.4825424398081377  3.021056261968062  -0.4069754243335559 
C  3.901508983660383  1.7424002571462067  -0.39444652365421595 
H  4.765936399923344  1.3986883999095114  -0.39096784461555995 
C  2.032835506646396  -2.353488227430606  -4.45969437688729 
H  2.1272227404863946  -2.554483437515039  -5.363192398806068 
C  3.0697620280534665  -1.8185482746202066  -3.7831930641835467 
H  3.863267537207351  -1.6265385337000435  -4.230366371005682 
C  0.7233727226987394  -4.04795900093098  0.4159392296514388 
H  -0.16927850852309478  -3.704723345776113  0.3401725190947986 
H  0.72312592244236  -4.82106216103762  0.9844044114548341 
H  1.0474093763246954  -4.2918388210268335  -0.455099214079333 
C  2.3986533112502086  3.513568774242122  -0.7595229155954837 
H  2.2318010231363488  4.400561238163425  -0.9838697294752201 
C  3.6680841313791914  3.0328117545166515  -0.799185125459977 
H  4.367273984174708  3.5696478945271917  -1.0972871357288867 
Br  -1.654629867976521  1.654629867976521  0.0 
C  -1.352040782177733  -1.3199206589279684  -0.4819701001757076 
C  -1.6380700204479186  -1.599217458033982  -1.8139382277462257 
H  -1.1579680913617836  -1.159339363685303  -2.503515938957912 
C  -2.63068216563725  -2.52632649780156  -2.142289956238523 
H  -2.8368222554424674  -2.694399528648736  -3.0538898079700485 
C  -3.3101544432602585  -3.1961573187854975  -1.1619874135498987 
H  -3.9960123560788676  -3.811990145619169  -1.3868663427944008 
C  -2.9974710358883443  -2.9701089012107795  0.12423560353005347 
H  -3.438659168087169  -3.468581175155742  0.8017084178296768 
C  -2.0389854250767776  -2.015940632791841  0.4912562833419403 
H  -1.8619130127668426  -1.8492165108145995  1.4101568590026907 

-Pd 0
lanl2dz
F 1 1.0
1.472 1.0
****
-C 0
6-31g(d)
****
-N 0
6-31+g(d)
****
-H 0
6-31g(d,p)
****
-Br 0
6-31+g(d)
****
-P 0
6-31+g(d)
****

-Pd 0
lanl2dz


