%chk=HORUFATU_PN_Pd_gaussain.chk
%nprocshared=32
%mem=64GB
#p opt rwb97xd/gen pseudo=read

This Gaussian input file was generated using the DART python program. This file was generated on the 2023-08-13 at 16:51:13

0 1
Pd  0.0  0.0  0.0 
P  1.600003346090251  -1.389996148375959  -7.487192311192194e-18 
N  1.6000033460902512  1.389996148375959  5.1819171531454525e-17 
C  2.791042938888062  -0.4269133106543678  1.0500027981268463 
H  3.607806816212924  -0.26296467650436733  0.49781277281162256 
C  3.248588234998763  -1.093431970495587  2.352508716766172 
H  2.4606487059810878  -1.3126434340352584  2.9096531979056834 
H  3.7253540671803522  -1.935790779452019  2.146133771005552 
C  4.175280593995042  -0.14984143858481108  3.1157911807769167 
H  4.420966099463243  -0.5637203659992189  3.9820628794056825 
H  5.0060154573874645  -0.01593044881877738  2.59663812669337 
C  3.518516142527049  1.1986031432148803  3.371514556914147 
H  4.153646346134922  1.7906807406683392  3.8469147073756504 
H  2.723549659808838  1.075036825998334  3.9474600461787137 
C  3.0976945311356183  1.8557000215531059  2.053366035743592 
H  2.656531785704778  2.7233221990742846  2.236182279872341 
H  3.89666053663163  2.0267586646132365  1.494289535883163 
C  2.136574632602541  0.9361215561786266  1.3100506742291707 
H  1.353973852892655  0.7776107284634368  1.9122158235815274 
C  2.2419504259229774  2.275317184292352  -0.6646988040144054 
H  2.9113214715723785  2.747186466639886  -0.18230324679702556 
C  2.082590967549072  2.6551397547482836  -2.06655963448191 
C  2.7224630533184544  3.829033831294072  -2.4733808616860284 
H  3.1916005383686645  4.355350822067579  -1.8374212518491364 
C  2.678111098916241  4.228172041603659  -3.7943547952712673 
H  3.0939186824928075  5.0409980133303165  -4.056821484827933 
C  2.035183617109338  3.4557071781185953  -4.734207415535995 
H  2.0161046802646885  3.7296729840274327  -5.643644626871488 
C  1.4128779042604436  2.274409832857261  -4.351809622872167 
H  0.9791957367488539  1.736423712626847  -5.004105140273528 
C  1.4223458536512363  1.8739330073276421  -3.0246709262213067 
H  0.9825981289999347  1.0736992647380588  -2.7653546986437076 
C  2.3915493744373397  -1.9591952867508418  -1.5200848614078422 
C  1.8732131642192038  -3.059338964693172  -2.222537166593207 
H  1.1607046462381478  -3.5649715780073663  -1.8516256243657943 
C  2.3922994002558866  -3.405416074735559  -3.4450816743564254 
H  2.025494954939543  -4.143831800706612  -3.9182503277294294 
C  3.4434294748660292  -2.69420423709483  -3.999612997412082 
H  3.821898104692675  -2.963697811186866  -4.829350744992768 
C  3.9350727146047104  -1.5889141276257948  -3.334574721273623 
H  4.635946591516527  -1.0790831177859572  -3.7257778527390375 
C  3.417405657263525  -1.211328739627984  -2.0992942662698475 
H  3.7610266359189795  -0.44679207437057333  -1.6511040717040173 
C  1.0662916242699074  -2.8094631571912525  0.9699752310634345 
C  0.06367318689078894  -2.6026755698041706  1.9084577576616204 
H  -0.34583636762564174  -1.7487696712973444  1.9814772841940056 
C  -0.3436601543363773  -3.637037709353872  2.74185698575756 
H  -1.0129990050933633  -3.483452183056241  3.3995289929003873 
C  0.22135650788612615  -4.883673437103614  2.6147926567394486 
H  -0.0693617774354709  -5.593802793327571  3.175001034049745 
C  1.213197498468717  -5.1104492021791454  1.6744208463502923 
H  1.5937127664806205  -5.975939744297261  1.5814679963997513 
C  1.651477341570629  -4.070565435818487  0.8663055194382443 
H  2.351773682547516  -4.218610774102649  0.24179900816175962 
Br  -1.654629867976521  1.654629867976521  0.0 
C  -1.352040782177733  -1.3199206589279684  -0.4819701001757076 
C  -1.6380700204479186  -1.599217458033982  -1.8139382277462257 
H  -1.1579680913617836  -1.159339363685303  -2.503515938957912 
C  -2.63068216563725  -2.52632649780156  -2.142289956238523 
H  -2.8368222554424674  -2.694399528648736  -3.0538898079700485 
C  -3.3101544432602585  -3.1961573187854975  -1.1619874135498987 
H  -3.9960123560788676  -3.811990145619169  -1.3868663427944008 
C  -2.9974710358883443  -2.9701089012107795  0.12423560353005347 
H  -3.438659168087169  -3.468581175155742  0.8017084178296768 
C  -2.0389854250767776  -2.015940632791841  0.4912562833419403 
H  -1.8619130127668426  -1.8492165108145995  1.4101568590026907 

-Pd 0
lanl2dz
F 1 1.0
1.472 1.0
****
-C 0
6-31g(d)
****
-N 0
6-31+g(d)
****
-H 0
6-31g(d,p)
****
-Br 0
6-31+g(d)
****
-P 0
6-31+g(d)
****

-Pd 0
lanl2dz


