%chk=WOBIZOHO_PN_Ni_gaussain.chk
%nprocshared=32
%mem=64GB
#p opt rwb97xd/gen pseudo=read

This Gaussian input file was generated using the DART python program. This file was generated on the 2023-08-13 at 16:51:13

0 1
Ni  0.0  0.0  0.0 
P  1.440868414359896  1.4156264381891153  -1.412780781381695e-15 
N  2.809332337217734  0.4620296498112042  -0.14677720201688604 
H  3.597054266525129  0.836769970201527  -0.25896434193063866 
N  1.440868414359896  -1.4156264381891153  1.582067810090848e-15 
N  3.8230505760308136  -1.5989623896792557  -0.15897209663426914 
N  4.926875128386337  -4.968574825077104  -0.520018538008991 
C  1.6369035025471446  2.3878355273048566  1.5223264765615165 
C  0.5979951208743076  2.4759360011555303  2.4347664860949103 
H  -0.23423734639113936  2.050883534086801  2.2630331443464624 
C  0.7984567951423822  3.202383983658256  3.610522964226061 
H  0.09921916999932567  3.2626202491726812  4.249153527150483 
C  1.9979885954337493  3.8294146967434677  3.85245501034156 
H  2.1219840160978465  4.320369295535128  4.655882174171392 
C  3.02059773580104  3.745692433014335  2.9307599476481587 
H  3.8458098182913503  4.1846697989604955  3.101128962140172 
C  2.8519741999703947  3.0281774957408145  1.7580421606450767 
H  3.555245274349468  2.974535402776556  1.1223557742845092 
C  1.6051144441912952  2.6551721563693085  -1.3099507754972342 
C  0.8770733229775943  3.8317330767280846  -1.2190556903362468 
H  0.26509666682253674  3.9596194739555837  -0.5027563243408183 
C  1.043394081384792  4.821156770871388  -2.1724859073897713 
H  0.5475653026420442  5.62767929277379  -2.1048603661004477 
C  1.921598665272061  4.643087540741394  -3.21448672222648 
H  2.0295788839329822  5.333812031060198  -3.8601338711025344 
C  2.648858837879634  3.473935298065562  -3.337905054677128 
H  3.2518377860749546  3.3555579490140928  -4.0613142205471835 
C  2.481164256550845  2.458329407122227  -2.3746822291200465 
H  2.963686990169427  1.643525788114153  -2.4506781105386826 
C  2.701984114376744  -0.8924333308694733  -0.08963857218998483 
C  1.3619285808587247  -2.765119389481956  0.05395708570473456 
H  0.5096258132332381  -3.177848962226731  0.1319924756240839 
C  2.4850358164403774  -3.5481509330422636  -0.0014475095354612375 
H  2.4193676918020035  -4.494193956025907  0.047391266764180984 
C  3.715993313226349  -2.931332006491985  -0.12916913243408373 
C  5.0092133644270875  -3.6709807490934714  -0.21970921604596014 
C  6.210615952370575  -3.0127486231153906  0.002090468383688579 
H  6.224487215972343  -2.090195444700161  0.2259649891359473 
C  7.382386182680099  -3.7274141575442186  -0.11117647851584384 
H  8.21815261552942  -3.3078076116535806  0.05533546210129568 
C  7.331629931824452  -5.047735090791939  -0.46250499461858685 
H  8.12738077171518  -5.55295974307726  -0.5808851514709826 
C  6.084880557271091  -5.627280416357834  -0.6429893503547661 
H  6.0508222180220095  -6.55111330031623  -0.8675152776876887 
Br  -1.5839191898578664  1.5839191898578664  0.0 
C  -1.2937473829822488  -1.2398794889499034  -0.4598005675376139 
C  -1.601562203225019  -1.4938654694550033  -1.7919791134336869 
H  -1.1309417375171225  -1.0428217585005106  -2.480879663633267 
C  -2.60218398542082  -2.411889969420291  -2.121542410022959 
H  -2.8231586547736818  -2.5626138747145775  -3.03270050271447 
C  -3.2683208079706407  -3.09759503004543  -1.143064365570095 
H  -3.9596020908062854  -3.707191723557817  -1.3683280760515548 
C  -2.9347449854640226  -2.896087320001541  0.14198826503765638 
H  -3.3668350933519986  -3.405606940434718  0.8171022443470677 
C  -1.9675509241539992  -1.9516175659140573  0.5112421903797603 
H  -1.7755298364628027  -1.8022912010877177  1.4301324877763764 

-Ni 0
lanl2dz
F 1 1.0
3.130 1.0
****
-C 0
6-31g(d)
****
-N 0
6-31+g(d)
****
-H 0
6-31g(d,p)
****
-Br 0
6-31+g(d)
****
-P 0
6-31+g(d)
****

-Ni 0
lanl2dz


