%chk=HATAYEBU_PN_Ni_gaussain.chk
%nprocshared=32
%mem=64GB
#p opt rwb97xd/gen pseudo=read

This Gaussian input file was generated using the DART python program. This file was generated on the 2023-10-04 at 16:41:16

0 1
Ni  0.0  0.0  0.0 
P  1.392890682178612  1.4628586902021665  1.2816708952641621e-15 
N  1.392890682178612  -1.4628586902021674  1.1102230246251565e-16 
N  2.7440465572824535  0.44511137464002903  0.13439789000758162 
H  3.5462501376871876  0.8041556647808712  0.18558590914397094 
C  2.6203844219098555  -0.9394775016239397  0.16580871618540052 
C  3.7648645123727595  -1.7462404158442448  0.3457248710267126 
H  4.622119453402573  -1.353250666492208  0.46407935123013255 
C  3.613434570194129  -3.114331328113713  0.3464237111206243 
H  4.370255705762077  -3.678537304075708  0.456223417160517 
C  2.3383884481706323  -3.6710997094038014  0.18386404112673788 
H  2.210629022301444  -4.612051822016791  0.19153873139596522 
C  1.271222739180672  -2.810360901593193  0.011749125199146681 
H  0.4060402757307361  -3.185077317246604  -0.10450543504937679 
C  1.9083305516406381  2.703062988232669  -1.2569554686287279 
H  2.774211002217992  3.1122734396654534  -0.9691551876244223 
C  2.1208757121445547  1.9946049417095486  -2.5958365877214846 
H  1.2943331376317642  1.5395286452369217  -2.858857930784267 
H  2.8419610853150745  1.3375236655494016  -2.5062970371345767 
H  2.362960102374026  2.6534862379383686  -3.279699969901792 
C  0.8545147758050926  3.8132851859594714  -1.3807358478284648 
H  1.1262220648438905  4.44496350266161  -2.0790162952788878 
H  0.7755361626095598  4.285595929046019  -0.5254206482542025 
H  -0.010454809941453869  3.417482666633437  -1.6166325867389935 
C  1.3195887039206626  2.3564882928122017  1.6157972995776841 
H  0.46565654858017713  2.8762841385031583  1.6314744446620058 
C  1.2476473763584803  1.321037346562113  2.747199559297208 
H  2.0908074843391034  0.823239654360304  2.7887792412184647 
H  0.5100004222482345  0.6995979648304671  2.5752055886910177 
H  1.096037640028865  1.779623630044689  3.6003036141766414 
C  2.46401796040204  3.348602151601548  1.848211387162003 
H  2.37848713980492  3.7432271887746325  2.7417775955451087 
H  2.4246052038231163  4.057293053835396  1.1730376245572596 
H  3.3215153744597776  2.8792505049943733  1.7790560062328735 
Br  -1.5839191898578664  1.5839191898578664  0.0 
C  -1.2937473829822488  -1.2398794889499034  -0.4598005675376139 
C  -1.601562203225019  -1.4938654694550033  -1.7919791134336869 
H  -1.1309417375171225  -1.0428217585005106  -2.480879663633267 
C  -2.60218398542082  -2.411889969420291  -2.121542410022959 
H  -2.8231586547736818  -2.5626138747145775  -3.03270050271447 
C  -3.2683208079706407  -3.09759503004543  -1.143064365570095 
H  -3.9596020908062854  -3.707191723557817  -1.3683280760515548 
C  -2.9347449854640226  -2.896087320001541  0.14198826503765638 
H  -3.3668350933519986  -3.405606940434718  0.8171022443470677 
C  -1.9675509241539992  -1.9516175659140573  0.5112421903797603 
H  -1.7755298364628027  -1.8022912010877177  1.4301324877763764 

-Ni 0
lanl2dz
F 1 1.0
3.130 1.0
****
-H 0
6-31g(d,p)
****
-P 0
6-31+g(d)
****
-N 0
6-31+g(d)
****
-C 0
6-31g(d)
****
-Br 0
6-31+g(d)
****

-Ni 0
lanl2dz


