%chk=UPADEZUN_PN_Ni_gaussain.chk
%nprocshared=32
%mem=64GB
#p opt rwb97xd/gen pseudo=read

This Gaussian input file was generated using the DART python program. This file was generated on the 2023-10-04 at 16:41:16

0 1
Ni  0.0  0.0  0.0 
P  1.445760740924998  -1.4106296041130004  -2.2975763669484916e-16 
N  1.445760740924998  1.4106296041130004  1.6031460444159857e-16 
C  1.2739726065989418  2.6954351084889145  0.28834110499567533 
H  0.3969107638262015  3.003929541564161  0.478786815668533 
C  2.327941355589022  3.6164565419054817  0.32439683047167317 
H  2.163230485811495  4.523999227999178  0.554307992216747 
C  3.5909174875128738  3.202524693107259  0.028561733261745426 
H  4.302742994423399  3.829660375940363  -0.016950166600279957 
C  3.83066621490845  1.8326928574745163  -0.20996059231647896 
C  5.123274791498092  1.2797353286337168  -0.4375762750476301 
H  5.871244305286975  1.8592222312313724  -0.518746196571704 
C  5.305544545579441  -0.06669891212098918  -0.540413486554094 
H  6.175468870576451  -0.41469081486336  -0.6992551511268663 
C  4.21052949081551  -0.9483260638366964  -0.412243540006514 
H  4.348525722311433  -1.8885461018487117  -0.44282670880256403 
C  2.942750470664782  -0.4421561961987835  -0.24374822505338617 
C  2.7384718193302784  0.9545191282488774  -0.16786304410230257 
C  1.656900375474761  -2.2616622752689866  1.5832965064533362 
H  1.7335193389804044  -1.5995157576596934  2.3013425799397313 
H  2.469374680575255  -2.80848564956293  1.5549523557822735 
H  0.8811853970354872  -2.8375833658453056  1.7498873515029838 
C  1.503947980143728  -2.697139198629225  -1.27100565239099 
H  2.3788374739331895  -3.137747546977918  -1.2488156316097525 
H  1.3640492834908546  -2.2926344595139594  -2.1515440392363008 
H  0.8001285691536665  -3.358050835023123  -1.0987992483499278 
Br  -1.5839191898578664  1.5839191898578664  0.0 
C  -1.2937473829822488  -1.2398794889499034  -0.4598005675376139 
C  -1.601562203225019  -1.4938654694550033  -1.7919791134336869 
H  -1.1309417375171225  -1.0428217585005106  -2.480879663633267 
C  -2.60218398542082  -2.411889969420291  -2.121542410022959 
H  -2.8231586547736818  -2.5626138747145775  -3.03270050271447 
C  -3.2683208079706407  -3.09759503004543  -1.143064365570095 
H  -3.9596020908062854  -3.707191723557817  -1.3683280760515548 
C  -2.9347449854640226  -2.896087320001541  0.14198826503765638 
H  -3.3668350933519986  -3.405606940434718  0.8171022443470677 
C  -1.9675509241539992  -1.9516175659140573  0.5112421903797603 
H  -1.7755298364628027  -1.8022912010877177  1.4301324877763764 

-Ni 0
lanl2dz
F 1 1.0
3.130 1.0
****
-H 0
6-31g(d,p)
****
-P 0
6-31+g(d)
****
-N 0
6-31+g(d)
****
-C 0
6-31g(d)
****
-Br 0
6-31+g(d)
****

-Ni 0
lanl2dz


