%chk=IPOKODAJ_PN_Ni_gaussain.chk
%nprocshared=32
%mem=64GB
#p opt rwb97xd/gen pseudo=read

This Gaussian input file was generated using the DART python program. This file was generated on the 2023-10-04 at 16:41:16

0 1
Ni  0.0  0.0  0.0 
P  1.442208277260951  -1.414261392034725  1.7319706869130058e-16 
N  2.7774011849799765  -0.4537138138776566  0.36285047784650926 
H  3.5065329553908966  -0.7311840058875111  0.47755376430104546 
N  1.442208277260951  1.4142613920347253  -1.7319706869130063e-16 
N  3.805087835085297  1.6081506310002949  0.27264449055372725 
C  1.2202746682552834  -2.536233853375194  1.3972142030438235 
C  1.1887392962204715  -2.023693438935172  2.6919929617034946 
H  1.2876197265712395  -1.1122538335978094  2.8249388390977326 
C  0.9519635757742441  -2.864213516549517  3.7653448831786345 
H  0.9419351955128361  -2.5147123049744344  4.614088645863758 
C  0.7332720756125348  -4.209291088993983  3.562798711000729 
H  0.6117850614967043  -4.707993729094535  4.278940479198876 
C  0.7634452635430177  -4.721888702902543  2.293968385486164 
H  0.6559095233818869  -5.675382577935009  2.148969541133628 
C  0.9976487605778588  -3.8945889289076723  1.2086993654156954 
H  0.9731229090768452  -4.272882282606792  0.3926197668744497 
C  1.9056922453643728  -2.446332802751818  -1.403939622808469 
C  3.1439888967857157  -3.088640794835996  -1.388768057842938 
H  3.644934601486116  -2.958081772267793  -0.6670432400846299 
C  3.522562950317395  -3.8811074324124832  -2.4540825204880403 
H  4.365073177249416  -4.265653975974386  -2.435833319147602 
C  2.678350621250811  -4.043370063841486  -3.5317303998501948 
H  2.8999174584153344  -4.62165288666772  -4.22256759014399 
C  1.457846132103334  -3.4086866594472025  -3.552747016071197 
H  0.8627998970026898  -3.520461884232606  -4.2789594968347515 
C  1.0683683638709365  -2.5937681150458265  -2.501484986868453 
H  0.25906097341829293  -2.201196382460224  -2.4965775910742396 
C  2.6837498020198067  0.9021860189256095  0.20659388798956424 
C  1.3715344622945937  2.7635105129872866  -0.1159832810660258 
H  0.5005343173584489  3.1279819592864744  -0.22239644920704654 
C  2.4749478557289017  3.5593370952152794  -0.03675718556010193 
H  2.420560107614542  4.445366429719824  -0.1048701891092106 
C  3.7203489349482703  2.9429410139040293  0.13908456950227824 
C  4.9982049242849875  3.6907009866757616  0.1740884783797067 
C  6.200025312840665  3.0100579383527943  0.3436739860787849 
H  6.17035091461998  2.109374449307423  0.44597223949153314 
C  7.405362373425736  3.6898725294990347  0.38466705921150296 
H  8.166558714760274  3.2356205407095207  0.4953133000860577 
C  7.425362732555305  5.070251701973866  0.25328884247682965 
H  8.225721210647912  5.464435830975608  0.280656688362957 
C  6.238564169467797  5.758374725398736  0.08174253594088361 
H  6.266399122875625  6.724065200081838  0.0047649906753688505 
C  5.0297341860144185  5.086796585495247  0.037571356333939335 
H  4.21764871618465  5.582019313729634  -0.10145489705537021 
Br  -1.5839191898578664  1.5839191898578664  0.0 
C  -1.2937473829822488  -1.2398794889499034  -0.4598005675376139 
C  -1.601562203225019  -1.4938654694550033  -1.7919791134336869 
H  -1.1309417375171225  -1.0428217585005106  -2.480879663633267 
C  -2.60218398542082  -2.411889969420291  -2.121542410022959 
H  -2.8231586547736818  -2.5626138747145775  -3.03270050271447 
C  -3.2683208079706407  -3.09759503004543  -1.143064365570095 
H  -3.9596020908062854  -3.707191723557817  -1.3683280760515548 
C  -2.9347449854640226  -2.896087320001541  0.14198826503765638 
H  -3.3668350933519986  -3.405606940434718  0.8171022443470677 
C  -1.9675509241539992  -1.9516175659140573  0.5112421903797603 
H  -1.7755298364628027  -1.8022912010877177  1.4301324877763764 

-Ni 0
lanl2dz
F 1 1.0
3.130 1.0
****
-H 0
6-31g(d,p)
****
-P 0
6-31+g(d)
****
-N 0
6-31+g(d)
****
-C 0
6-31g(d)
****
-Br 0
6-31+g(d)
****

-Ni 0
lanl2dz


