%chk=AWASEPIX_PN_Pd_gaussain.chk
%nprocshared=32
%mem=64GB
#p opt rwb97xd/gen pseudo=read

This Gaussian input file was generated using the DART python program. This file was generated on the 2023-10-04 at 16:41:16

0 1
Pd  0.0  0.0  0.0 
P  1.47682973798607  -1.5202216696916258  1.9459448862455484e-15 
N  1.4768297379860698  1.5202216696916262  -6.302626700282921e-16 
C  1.5238647249797102  -2.924049813670721  1.1273266395196881 
C  0.6973394215977784  -4.02595453151348  0.9234063470883123 
C  0.6974278553817014  -5.064101047554219  1.8339491815623175 
C  1.4814091982448918  -5.015566934752783  2.9577539394882697 
C  2.3377611039486554  -3.9333549864559774  3.1570149807410965 
C  2.3445508646319877  -2.892719096611765  2.2322618169627924 
C  1.606792977447453  -2.0157356924280645  -1.7699313403802757 
C  2.929605649013599  -2.7554309667548003  -1.730475199125054 
C  3.800876943514564  -2.1680333340259255  -0.9477751336829108 
C  3.195433506765079  -0.9307166633712083  -0.3095572700838971 
C  2.880442656672577  0.08233746926222145  -1.4592588394976054 
C  1.854512953099074  -0.610693929384866  -2.3737962820415817 
C  3.1304562907401916  -3.9423325390538015  -2.664992030108945 
C  5.265657434768546  -2.464886446961451  -0.721606785361729 
C  2.500292532947574  1.418377949735046  -0.861865386261118 
C  3.3235066789038505  2.530193123599033  -1.0987444462543556 
C  3.109992056469837  3.714238267071516  -0.4399591593618106 
C  2.1188600150310313  3.8143784196789188  0.4769546622534737 
C  1.28855328325815  2.6970794567292957  0.6564968817015733 
H  0.1460935615523351  -4.063739715177946  0.17612615085786232 
H  0.15865730269967027  -5.806745349045468  1.682720602830417 
H  1.4415375107505355  -5.701580014813371  3.584217380179065 
H  2.8988143802341027  -3.9078159543700326  3.8996275910632727 
H  2.9107730973281525  -2.168817791992662  2.3628265303095923 
H  0.8459757544610488  -2.513920730241416  -2.133721473982287 
H  3.6730284036277947  -0.568037794892876  0.4654968201897978 
H  3.701282487078098  0.2114306264725174  -1.9785179458995126 
H  2.20173569534062  -0.6873527892889226  -3.2767568495463184 
H  1.0278147960677733  -0.10314644444701988  -2.401816412203919 
H  2.303636530065077  -4.145075097027284  -3.107445472341607 
H  3.417026897263322  -4.704950516493348  -2.1568808533346333 
H  3.7996385836457156  -3.7237398583775625  -3.318721789884759 
H  5.622651157115892  -1.8444470506520132  -0.08074634992218299 
H  5.741865103629238  -2.3763883037746805  -1.5504367044469116 
H  5.362852918218599  -3.3593024108358573  -0.3890772805602345 
H  4.021192142854372  2.4640015792958847  -1.7104346479536374 
H  3.6489399027153633  4.449379445677854  -0.6225341481871959 
H  1.9922623458727624  4.594063148314865  0.9684649714999719 
H  0.5771821634332319  2.7642947990949445  1.2513328655069675 
Br  -1.654629867976521  1.654629867976521  0.0 
C  -1.352040782177733  -1.3199206589279684  -0.4819701001757076 
C  -1.6380700204479186  -1.599217458033982  -1.8139382277462257 
H  -1.1579680913617836  -1.159339363685303  -2.503515938957912 
C  -2.63068216563725  -2.52632649780156  -2.142289956238523 
H  -2.8368222554424674  -2.694399528648736  -3.0538898079700485 
C  -3.3101544432602585  -3.1961573187854975  -1.1619874135498987 
H  -3.9960123560788676  -3.811990145619169  -1.3868663427944008 
C  -2.9974710358883443  -2.9701089012107795  0.12423560353005347 
H  -3.438659168087169  -3.468581175155742  0.8017084178296768 
C  -2.0389854250767776  -2.015940632791841  0.4912562833419403 
H  -1.8619130127668426  -1.8492165108145995  1.4101568590026907 

-Pd 0
lanl2dz
F 1 1.0
1.472 1.0
****
-H 0
6-31g(d,p)
****
-P 0
6-31+g(d)
****
-N 0
6-31+g(d)
****
-C 0
6-31g(d)
****
-Br 0
6-31+g(d)
****

-Pd 0
lanl2dz


