%chk=EQUXUXUD_PN_Ni_gaussain.chk
%nprocshared=32
%mem=64GB
#p opt rwb97xd/gen pseudo=read

This Gaussian input file was generated using the DART python program. This file was generated on the 2023-10-04 at 09:55:46

0 1
Ni  0.0  0.0  0.0 
P  1.2724242000999506  -1.5687691528711292  -1.6191699632570042e-15 
N  1.272424200099951  1.5687691528711292  -3.586522658602468e-16 
C  2.547107323446013  1.4779289424174835  -0.2140616528514541 
H  3.010417359331514  2.299706797776616  -0.3258280032845121 
C  3.355189105632091  0.2732435356824063  -0.30431637072560513 
C  2.9730396655674234  -1.0215183203131506  -0.26553942245456646 
C  4.192802344746569  -1.921283029108361  -0.3360787397782295 
H  4.394752647379548  -2.3127984530800196  0.5504680260828679 
H  4.0536795921569935  -2.6543211137082214  -0.986789640438482 
C  5.299375050012938  -1.0107700818172956  -0.7839437091326235 
H  5.4456200063907385  -1.099584366407863  -1.7590753646472665 
H  6.142243065095114  -1.2364872654780887  -0.3163751877887535 
C  4.8639569963477545  0.41484674071320254  -0.43834746514189604 
H  5.272915888884632  0.7196956976962867  0.41001772605902426 
H  5.102551541578039  1.0483817564808435  -1.1606749440478807 
C  0.8035924284182917  -2.5953181177412277  -1.4632890051476626 
H  -0.14460045788975617  -2.8774423481864697  -1.3169361474697105 
C  0.7992552748583606  -1.6958909187695832  -2.7051443722694075 
H  0.22251408332661438  -0.9081883541580832  -2.538823364290806 
H  1.7177376269509412  -1.3714885080843668  -2.880137928825471 
C  0.2836697750110131  -2.4546992927240074  -3.9321349117454796 
H  -0.6721422124483922  -2.6772610822396894  -3.801942652081187 
H  0.3558941274413323  -1.8737499648181009  -4.730414443815365 
C  1.069655917252222  -3.7327448619720816  -4.167886809150704 
H  2.0038855047064885  -3.5050226764955363  -4.402890520114691 
H  0.6738466190162036  -4.2259494539822855  -4.929441442680018 
C  1.0619189065796686  -4.622001048866647  -2.9303168908286787 
H  1.6153056473925695  -5.425160451060414  -3.100284239929104 
H  0.1361732086431291  -4.921927382284711  -2.747724291651115 
C  1.6045153436916104  -3.8831604311258583  -1.7091149591196306 
H  2.557681063856002  -3.658440822536665  -1.8538124277189965 
H  1.5437205645679972  -4.468597353645105  -0.9130862821346092 
C  1.4839979262098586  -2.7217379256760243  1.4227365804521899 
H  2.187767091203864  -3.3838218614157536  1.1651747151866942 
C  1.9877838046517504  -1.9860389365113569  2.672278955093687 
H  2.828244144788764  -1.5083264900188789  2.458850407043111 
H  1.3163999716922299  -1.3157317003731013  2.9550968612122483 
C  2.2369638017817026  -2.9757356086816706  3.81503510849007 
H  2.975854645980104  -3.585584140729262  3.5654588710010118 
H  2.5120087227501164  -2.478200940453708  4.625585819649333 
C  0.9846352195421866  -3.798058850210868  4.126060024769982 
H  1.1966427295866422  -4.466591468971607  4.824771713048972 
H  0.27924259835401966  -3.200023050435635  4.479366240623174 
C  0.4650780283392678  -4.513098811920358  2.8848128462322618 
H  -0.37612321227746004  -4.986487339888823  3.1043047922639 
H  1.1282287695714697  -5.186420953082303  2.5897635645447963 
C  0.20911365900705015  -3.5165341694178376  1.749288101919644 
H  -0.5110364128972822  -2.8911670284305915  2.0148395148506495 
H  -0.09109505119481898  -4.005363324807915  0.9423812565158096 
C  0.7714778980212824  2.943643847501984  -0.021273140281230146 
C  0.5253628985751195  3.522790427696525  -1.2655489359538061 
C  -0.012256259400290181  4.816037787441533  -1.288814521920661 
H  -0.18833035944615384  5.2375264900909  -2.1216901157712873 
C  -0.2881828536997637  5.481703987015118  -0.11564405463827437 
H  -0.6517827718725395  6.358605739884432  -0.14813459663871026 
C  -0.04296278541019927  4.891941115717762  1.1021764303870047 
H  -0.24550448326586838  5.362774181658774  1.9019644302009286 
C  0.505208542036764  3.597343394770074  1.1755503813647614 
C  0.795972407254265  2.7749596950148656  -2.5457413547211236 
H  0.47878296801966336  3.304704248876749  -3.306918191791017 
H  0.3256476578087186  1.9153542058758426  -2.5276194590960626 
H  1.7591841127163876  2.6184845759377606  -2.635549135957424 
C  0.7984800541431345  2.9564207496760972  2.500331028563636 
H  0.34529193881074416  3.4544131525546216  3.2118584832670813 
H  1.765640865228359  2.9652106853876474  2.6603012211970984 
H  0.47743145349257854  2.030426171479969  2.493524621897907 
Br  -1.5839191898578664  1.5839191898578664  0.0 
C  -1.2937473829822488  -1.2398794889499034  -0.4598005675376139 
C  -1.601562203225019  -1.4938654694550033  -1.7919791134336869 
H  -1.1309417375171225  -1.0428217585005106  -2.480879663633267 
C  -2.60218398542082  -2.411889969420291  -2.121542410022959 
H  -2.8231586547736818  -2.5626138747145775  -3.03270050271447 
C  -3.2683208079706407  -3.09759503004543  -1.143064365570095 
H  -3.9596020908062854  -3.707191723557817  -1.3683280760515548 
C  -2.9347449854640226  -2.896087320001541  0.14198826503765638 
H  -3.3668350933519986  -3.405606940434718  0.8171022443470677 
C  -1.9675509241539992  -1.9516175659140573  0.5112421903797603 
H  -1.7755298364628027  -1.8022912010877177  1.4301324877763764 

-Ni 0
lanl2dz
F 1 1.0
3.130 1.0
****
-P 0
6-31+g(d)
****
-N 0
6-31+g(d)
****
-C 0
6-31g(d)
****
-H 0
6-31g(d,p)
****
-Br 0
6-31+g(d)
****

-Ni 0
lanl2dz


