%chk=EHIGUHUD_PN_Ni_gaussain.chk
%nprocshared=32
%mem=64GB
#p opt rwb97xd/gen pseudo=read

This Gaussian input file was generated using the DART python program. This file was generated on the 2023-10-04 at 16:41:16

0 1
Ni  0.0  0.0  0.0 
P  1.445216051322431  -1.4111876434408004  1.7282064305360725e-16 
N  1.445216051322431  1.4111876434408004  -1.7282064305360725e-16 
N  2.5755623080545313  1.3805355149297172  -0.8066376180847965 
C  4.859530163094222  2.519368325342869  -0.9438393202316583 
H  4.779570112064196  3.0543369303394936  -1.7604752990540815 
H  5.263849200129963  1.6532615423923749  -1.1589000484403096 
H  5.423629335604685  2.9922078184474525  -0.2962977483356077 
C  3.4988913453580714  2.30168233834614  -0.3537399822089076 
C  2.9353190630664363  2.925771901554496  0.7282758539631049 
H  3.3272766851170354  3.623632653508645  1.2387783450426662 
C  1.6673896069465572  2.3445539403483275  0.9474376797333315 
C  0.7432946995373895  2.7101170547915427  2.110465564807057 
C  0.20194783654858206  4.133957650575707  1.8787750994676797 
H  0.9520352961774335  4.750915203348186  1.7438179544751036 
H  -0.3178357590578491  4.417264638032879  2.6596061468757455 
H  -0.37109587874529404  4.139692943849863  1.0841582441384663 
C  1.597919331349731  2.69304381856248  3.4101467115905133 
H  1.9477004374749676  1.7884444968964728  3.5592350580137246 
H  1.0391492609460935  2.956354290934532  4.170476681774752 
H  2.343630716480747  3.3209223073788894  3.318294474994935 
C  -0.4410452524485775  1.7565634070859748  2.3129378322347547 
H  -1.0597906654213944  1.8390341795172263  1.557170443668864 
H  -0.9069895794103005  1.9871852606096339  3.143886040518235 
H  -0.11233093598981703  0.8345661723117309  2.368285616505678 
C  2.790426457067328  0.32808326529215526  -1.7673719360426101 
C  3.3879481780890055  0.6564924085794431  -2.9826629001794394 
H  3.5704065367548603  1.5653443893640964  -3.19321625298291 
C  3.718910915540068  -0.3513215285751606  -3.893645948592456 
H  4.1377506950248115  -0.12752849051399076  -4.716077237659528 
C  3.4386023100011336  -1.6779205380700548  -3.5995988882976966 
H  3.6875002111902653  -2.363270841763082  -4.208794879758194 
C  2.7901275890594874  -2.00283154627733  -2.4088194490036554 
H  2.571833972120813  -2.9097404934670217  -2.2290022131470204 
C  2.4535151819614898  -1.0139157373227263  -1.4701931015216685 
C  2.520624369381504  -1.173520050786549  1.4494183298314398 
C  3.8893742061293595  -0.9249064616365127  1.3210062287945568 
H  4.283308237735537  -0.8794584907035877  0.45839496021489945 
C  4.6760559698163835  -0.7442854179470139  2.4495488692201866 
H  5.606043462490112  -0.5752095185731768  2.353913762060773 
C  4.112483398776879  -0.8093214501335091  3.720047075314701 
H  4.655859263702901  -0.687149373442396  4.489918560104812 
C  2.751863869895071  -1.0525775696124209  3.857026883905343 
H  2.367597170355804  -1.094083017362224  4.724670964984839 
C  1.9416177820555365  -1.2362199726653016  2.7337647751605765 
H  1.0108913342047616  -1.4012796697811745  2.8335645029112673 
C  1.0426510217452718  -3.189862401306404  -0.0571000235838483 
C  1.508768095700621  -4.064073095918224  0.9342715791936582 
H  2.102241400174314  -3.747545795614707  1.6055146015333066 
C  1.1003181413176844  -5.412947424465202  0.9357617307038735 
H  1.4120571309871142  -6.007350248142694  1.6076171954610856 
C  0.22653227468646708  -5.871242678824926  -0.06406335855270845 
H  -0.05274715849717193  -6.779351399133287  -0.06370238689825009 
C  -0.2331122312285614  -5.007266477171664  -1.0577264710606427 
H  -0.8209412082787066  -5.327663475474155  -1.7327147577878401 
C  0.1726296458016603  -3.667149431936683  -1.0584842933790932 
H  -0.1395640299404266  -3.0789525051437785  -1.735253016162611 
Br  -1.5839191898578664  1.5839191898578664  0.0 
C  -1.2937473829822488  -1.2398794889499034  -0.4598005675376139 
C  -1.601562203225019  -1.4938654694550033  -1.7919791134336869 
H  -1.1309417375171225  -1.0428217585005106  -2.480879663633267 
C  -2.60218398542082  -2.411889969420291  -2.121542410022959 
H  -2.8231586547736818  -2.5626138747145775  -3.03270050271447 
C  -3.2683208079706407  -3.09759503004543  -1.143064365570095 
H  -3.9596020908062854  -3.707191723557817  -1.3683280760515548 
C  -2.9347449854640226  -2.896087320001541  0.14198826503765638 
H  -3.3668350933519986  -3.405606940434718  0.8171022443470677 
C  -1.9675509241539992  -1.9516175659140573  0.5112421903797603 
H  -1.7755298364628027  -1.8022912010877177  1.4301324877763764 

-Ni 0
lanl2dz
F 1 1.0
3.130 1.0
****
-H 0
6-31g(d,p)
****
-P 0
6-31+g(d)
****
-N 0
6-31+g(d)
****
-C 0
6-31g(d)
****
-Br 0
6-31+g(d)
****

-Ni 0
lanl2dz


