%chk=HATIVAMU_PN_Pd_gaussain.chk
%nprocshared=32
%mem=64GB
#p opt rwb97xd/gen pseudo=read

This Gaussian input file was generated using the DART python program. This file was generated on the 2023-10-04 at 09:55:46

0 1
Pd  0.0  0.0  0.0 
P  1.532520784524634  -1.4640628555495834  -1.0828507705151771e-15 
N  1.5325207845246338  1.4640628555495834  -2.9031829144244875e-16 
C  2.7356913492401955  1.0120762707580477  -0.13383074897256042 
C  4.0475553699994355  1.697629289329256  -0.2513307479741617 
C  4.426097746210562  3.017547906672085  -0.365985590890824 
C  5.7839555682211286  3.2999088882604193  -0.47864290881172766 
C  6.713833135414025  2.3001482840952736  -0.467520661249726 
C  6.349823750290512  0.9664804585653113  -0.3470278868265714 
C  5.002953052262852  0.6718012421883279  -0.25470512565706116 
C  4.321491629346711  -0.6313964093112618  -0.17353819764400943 
C  2.9968019009948073  -0.42260947175505015  -0.13674107404811608 
C  1.3371469349670841  2.896296626833173  0.10052648061010233 
C  1.3485863027820324  3.457484066215057  1.3615235816155065 
C  1.1555787792782304  4.8436006610782005  1.4423265600007797 
C  0.9545724431359114  5.581693230604088  0.2951174327526836 
C  0.9407421024037503  4.978415781379786  -0.9296470266160145 
C  1.1230763719917882  3.6141689647701036  -1.0669860505827873 
C  1.5500611725830469  2.628266419992979  2.5902278674518717 
C  1.098651106931849  2.9442994326782927  -2.401296582806044 
C  1.5066273527304397  -2.551527030304804  -1.4396918346694598 
C  2.6089489582678924  -2.7151792185232257  -2.2420407607961916 
C  2.5779072336572577  -3.57451957760072  -3.320600930000407 
C  1.4437870271736395  -4.2528728882085405  -3.6245428376620867 
C  0.33356435301953113  -4.1144020915268635  -2.8326150743777765 
C  0.3638852126854437  -3.261567238660322  -1.7541918090476623 
C  1.7642843483183857  -2.500210312777811  1.4554992776972255 
C  2.1561683521061736  -3.812421781512076  1.374891034337614 
C  2.3384214897871907  -4.563788801602932  2.5280572170386644 
C  2.154388689037221  -3.997491311807815  3.7415433856042055 
C  1.7748678781683829  -2.690577955767686  3.8393513807855384 
C  1.5669389238990514  -1.9446470615711744  2.7065903684534245 
H  3.793490076823341  3.699148150963102  -0.3697103210740363 
H  6.062289113186097  4.182073759190893  -0.5646152197232837 
H  7.61524867139852  2.519033227310163  -0.5410482963238381 
H  6.991325360480536  0.29258333983154067  -0.33106143806936 
H  4.7412983309734935  -1.4604432773464247  -0.15194922197749694 
H  1.1624485375004672  5.266691164093166  2.2723245254684925 
H  0.8252084429897735  6.500065505334928  0.35565213744257285 
H  0.8062920269074767  5.498471421145461  -1.6897047604408704 
H  0.8923115918860516  1.927937625287569  2.614565665203653 
H  1.458145329590262  3.1816124337444793  3.3695555564712447 
H  2.427926320598113  2.2398721493203957  2.5739327022414766 
H  0.7029817578073756  3.5338230359364378  -3.0480664393740335 
H  0.5796760168839761  2.1383556027891952  -2.345684273255896 
H  1.9951865052762248  2.7297278459399115  -2.6679373217791222 
H  3.385839001334186  -2.240865163380201  -2.0547986499390003 
H  3.338861243480207  -3.688252723939914  -3.842451613968678 
H  1.420428801522736  -4.810525209558858  -4.367774061297813 
H  -0.4383184438531751  -4.594976192108006  -3.024859116528928 
H  -0.3971657386195542  -3.160954574086774  -1.2287966137468467 
H  2.300362275346953  -4.202130766913404  0.542846504761273 
H  2.588628427797448  -5.4561072222554365  2.4660254966388857 
H  2.2875687294099865  -4.50031041360359  4.511777011016376 
H  1.6544712441887166  -2.3042315582370474  4.676075870472246 
H  1.29184252579199  -1.059614520045761  2.780238058095362 
Br  -1.654629867976521  1.654629867976521  0.0 
C  -1.352040782177733  -1.3199206589279684  -0.4819701001757076 
C  -1.6380700204479186  -1.599217458033982  -1.8139382277462257 
H  -1.1579680913617836  -1.159339363685303  -2.503515938957912 
C  -2.63068216563725  -2.52632649780156  -2.142289956238523 
H  -2.8368222554424674  -2.694399528648736  -3.0538898079700485 
C  -3.3101544432602585  -3.1961573187854975  -1.1619874135498987 
H  -3.9960123560788676  -3.811990145619169  -1.3868663427944008 
C  -2.9974710358883443  -2.9701089012107795  0.12423560353005347 
H  -3.438659168087169  -3.468581175155742  0.8017084178296768 
C  -2.0389854250767776  -2.015940632791841  0.4912562833419403 
H  -1.8619130127668426  -1.8492165108145995  1.4101568590026907 

-Pd 0
lanl2dz
F 1 1.0
1.472 1.0
****
-P 0
6-31+g(d)
****
-N 0
6-31+g(d)
****
-C 0
6-31g(d)
****
-H 0
6-31g(d,p)
****
-Br 0
6-31+g(d)
****

-Pd 0
lanl2dz


