%chk=ZUQOSOWE_PN_Ni_gaussain.chk
%nprocshared=32
%mem=64GB
#p opt rwb97xd/gen pseudo=read

This Gaussian input file was generated using the DART python program. This file was generated on the 2023-08-13 at 16:51:13

0 1
Ni  0.0  0.0  0.0 
P  1.3188752547151679  -1.5299242015537895  1.8736167763709184e-16 
N  1.3188752547151679  1.5299242015537895  -1.8736167763709184e-16 
C  1.2778275280210294  -2.8928886921358985  -1.2138838253908522 
C  0.3769392317850606  -2.847093093289339  -2.2825331321474573 
H  -0.21376559139058848  -2.1331458376732266  -2.3643711922128037 
C  0.36542427980536574  -3.869718229496124  -3.2198150250052064 
H  -0.22739526503689467  -3.8321995439679757  -3.93614729112842 
C  1.2148751592004357  -4.9303801226487085  -3.1026196671238373 
H  1.1760569718999045  -5.625766808420146  -3.7181864998776213 
C  2.1270052286960155  -4.972603162152492  -2.0767348240458747 
H  2.716812541004771  -5.689440815865131  -2.0122947544704486 
C  2.1774307346952835  -3.954945124964263  -1.1380398801525287 
H  2.810765598384134  -3.980877622116543  -0.45729285222828703 
C  1.4331163595138223  -2.258164952872363  1.6708040543682598 
C  1.2518431528165386  -3.590748225906051  1.954635157252544 
H  1.0522846017453282  -4.185759144796986  1.2680963520165065 
C  1.3644944719231664  -4.053415424896114  3.260193786070985 
H  1.2682175612676028  -4.961834798606594  3.4356573376766595 
C  1.6129650445882016  -3.197032482087991  4.278827365817286 
H  1.6583302925357053  -3.5118476699978523  5.152267055629923 
C  1.7963384542382896  -1.875517976371535  4.017890182161361 
H  1.9885070996927257  -1.29031775266717  4.714474362200329 
C  1.7007581371293372  -1.390495163315583  2.717943808730265 
H  1.816235184076136  -0.48252536089713216  2.551269037020062 
C  2.9620930738008986  -0.7853266039453248  -0.3204524873907212 
H  3.28754075802604  -0.34979603038927726  0.48399389014507416 
H  3.593048468319884  -1.478388024192896  -0.567456066093173 
C  2.8476420644228835  0.23973432286874258  -1.4534467339654562 
H  3.7008057896699276  0.30527865173036717  -1.9115038252506984 
H  2.187211360380897  -0.06607609213406221  -2.095458949763904 
C  2.44843733370129  1.6156010180044833  -0.9387000387980546 
H  3.2063425570685338  2.025539153738949  -0.4917514430253277 
H  2.2008843955654673  2.1806857484257547  -1.6875450496414661 
C  1.2773655388068774  2.27222366243337  1.0476344657671006 
C  0.17152822417670444  2.1310163759674166  2.0401902605819364 
H  -0.40195406871562644  2.899983837757476  1.9923160248480343 
H  0.5412214787902137  2.0625372415804986  2.924403196274986 
H  -0.33716408235108  1.341041500890243  1.8440232806229222 
C  2.3174434823978576  3.309877729469962  1.3928884424538481 
H  3.0885849090551165  2.876998453929776  1.767302121291599 
H  1.9536075270240598  3.9260028349115736  2.0332779114661137 
H  2.57022889270234  3.786559763298392  0.5995175928744089 
Br  -1.5839191898578664  1.5839191898578664  0.0 
C  -1.2937473829822488  -1.2398794889499034  -0.4598005675376139 
C  -1.601562203225019  -1.4938654694550033  -1.7919791134336869 
H  -1.1309417375171225  -1.0428217585005106  -2.480879663633267 
C  -2.60218398542082  -2.411889969420291  -2.121542410022959 
H  -2.8231586547736818  -2.5626138747145775  -3.03270050271447 
C  -3.2683208079706407  -3.09759503004543  -1.143064365570095 
H  -3.9596020908062854  -3.707191723557817  -1.3683280760515548 
C  -2.9347449854640226  -2.896087320001541  0.14198826503765638 
H  -3.3668350933519986  -3.405606940434718  0.8171022443470677 
C  -1.9675509241539992  -1.9516175659140573  0.5112421903797603 
H  -1.7755298364628027  -1.8022912010877177  1.4301324877763764 

-Ni 0
lanl2dz
F 1 1.0
3.130 1.0
****
-C 0
6-31g(d)
****
-N 0
6-31+g(d)
****
-H 0
6-31g(d,p)
****
-Br 0
6-31+g(d)
****
-P 0
6-31+g(d)
****

-Ni 0
lanl2dz


