%chk=FOBUWALA_PN_Ni_gaussain.chk
%nprocshared=32
%mem=64GB
#p opt rwb97xd/gen pseudo=read

This Gaussian input file was generated using the DART python program. This file was generated on the 2023-10-04 at 16:41:16

0 1
Ni  0.0  0.0  0.0 
P  1.4135524017524073  -1.442903187154287  7.71167461943385e-16 
N  1.4135524017524075  1.442903187154287  -7.318161892753794e-16 
C  1.9069509540054275  -4.020371885754041  0.9231121255693289 
H  2.355248618581822  -4.1695794430709  0.12241384982814729 
C  1.8586582755624241  -5.014753835820786  1.8706776191317946 
H  2.2613093908489494  -5.835209498085127  1.7004873561409302 
C  2.0013168217337833  4.827096450065043  1.0951617395953106 
H  1.2657968544318359  4.796361532854512  1.6638467513234365 
C  1.2966740772130376  -2.800287332838187  1.1487301155183882 
C  1.7605002445715334  -2.0987848834629985  -1.6604941297127278 
C  3.0508830221897694  -2.149656259071202  -2.172360001177147 
H  3.7707971759391103  -1.8688295455346189  -1.6536786845716318 
C  1.2155948104281196  2.685148253183333  0.23507993951754896 
H  0.3403745342824871  2.9309638790393695  0.4307487574436303 
C  2.218712190213115  3.7834816681406744  0.23001615027943792 
C  3.9568729401236498  5.997111867613276  0.24272077358798072 
C  1.2231996981585662  -4.807210517831025  3.059727516134311 
H  1.1834247820053112  -5.489484566959403  3.690123818416451 
C  2.8535987414007984  5.937264744279723  1.1464829625852888 
C  3.3204079408592726  3.825090897737296  -0.6714013140624808 
H  3.4733085654151457  3.1237185471807045  -1.2632101217741902 
C  2.8599048586711504  -0.4687475941015284  0.48845754256558044 
H  2.882877343939275  -0.3671759458407438  1.4527600237353737 
H  3.6732887044840083  -0.9165266313592184  0.20798438313090142 
C  3.2575022170010017  -2.6125506694143277  -3.4422495763799237 
H  4.128426478149681  -2.6682669300170594  -3.7658349123380286 
C  0.6752723737714781  -2.5747978420001503  2.355354971255066 
H  0.28247523712195655  -1.7482557665390097  2.519731055076079 
C  0.627098151544919  -3.5651060121679152  3.335847206008546 
H  0.2117670038075965  -3.4063462408683702  4.1526148306951125 
C  4.146629748174515  4.911266930857676  -0.6510358975035389 
H  4.861573064185906  4.940074899659784  -1.2464160078735145 
C  2.7614024742290586  0.8882831945418309  -0.1724079346181012 
H  3.4135680949965477  1.4886434735349443  0.21975177582686337 
H  2.959432183755637  0.8031279248786408  -1.1184691874941688 
C  2.2260581826289534  -2.9960830885861403  -4.2522356672497335 
H  2.3842797411428736  -3.256784255753064  -5.130439282511727 
C  0.6966159515305257  -2.5214644093172764  -2.4513547491927095 
H  -0.1712252301839725  -2.488348227008303  -2.1198031667961312 
C  4.815056811674524  7.132552207329439  0.2855014649708803 
H  5.54960842214806  7.178077444632127  -0.2835691847021421 
C  2.661838001334565  6.998249035276583  2.073233308054425 
H  1.9750303144556396  6.948076046787466  2.698795073566124 
C  0.9303897743636269  -2.9904338772789862  -3.734177222443681 
H  0.2225941963092939  -3.3020712026402452  -4.250872003846057 
C  3.4792174983025195  8.08832766910513  2.0518062222303377 
H  3.3155249347235287  8.795318636400651  2.6341543112556964 
C  4.566347254019361  8.161731731098289  1.1605558825849693 
H  5.118769787695822  8.90899777403115  1.1650207863858004 
Br  -1.5839191898578664  1.5839191898578664  0.0 
C  -1.2937473829822488  -1.2398794889499034  -0.4598005675376139 
C  -1.601562203225019  -1.4938654694550033  -1.7919791134336869 
H  -1.1309417375171225  -1.0428217585005106  -2.480879663633267 
C  -2.60218398542082  -2.411889969420291  -2.121542410022959 
H  -2.8231586547736818  -2.5626138747145775  -3.03270050271447 
C  -3.2683208079706407  -3.09759503004543  -1.143064365570095 
H  -3.9596020908062854  -3.707191723557817  -1.3683280760515548 
C  -2.9347449854640226  -2.896087320001541  0.14198826503765638 
H  -3.3668350933519986  -3.405606940434718  0.8171022443470677 
C  -1.9675509241539992  -1.9516175659140573  0.5112421903797603 
H  -1.7755298364628027  -1.8022912010877177  1.4301324877763764 

-Ni 0
lanl2dz
F 1 1.0
3.130 1.0
****
-H 0
6-31g(d,p)
****
-P 0
6-31+g(d)
****
-N 0
6-31+g(d)
****
-C 0
6-31g(d)
****
-Br 0
6-31+g(d)
****

-Ni 0
lanl2dz


