%chk=MUMOMETO_PN_Ni_gaussain.chk
%nprocshared=32
%mem=64GB
#p opt rwb97xd/gen pseudo=read

This Gaussian input file was generated using the DART python program. This file was generated on the 2023-10-04 at 16:41:16

0 1
Ni  0.0  0.0  0.0 
P  1.446404009085982  -1.4099700147520868  1.245334553326713e-16 
N  1.4464040090859818  1.4099700147520868  4.9373078379042364e-17 
C  1.5478838593351332  -0.47044741771804993  -1.5633188988993514 
H  2.2512333379159166  -0.8534314807478918  -2.1458844217766355 
H  0.684301685356087  -0.5135407348554955  -2.043739979623049 
C  1.8804333866010026  0.9557766395031809  -1.2163791051041533 
C  2.639718581242623  1.7403891124106394  -2.055081358920166 
H  2.915654956054161  1.4107561733146115  -2.902239391709096 
C  2.993177361693732  3.0002885509900805  -1.656393479509188 
H  3.49493921814776  3.5648355602681163  -2.2331808005583 
C  2.61165208883639  3.4428453099788277  -0.40597383745115 
H  2.86961251506383  4.3091058170966035  -0.11482067791374137 
C  1.8526199159938217  2.6301166043960453  0.43372010185748466 
C  1.612764785740152  3.074782865692559  1.8409390764863873 
C  0.7781865337970233  4.16576514113511  2.1135133893879376 
C  0.6369243113680065  4.573510830039767  3.443536963500097 
H  0.05222193003627784  5.293543706184661  3.6518533395619452 
C  1.3282280535651123  3.9490434401039525  4.451643522813695 
H  1.2092320781054926  4.231772176055186  5.350835359793915 
C  2.187491570854074  2.923368138594595  4.167866226805141 
H  2.6861177833610617  2.524138183978167  4.871642180882793 
C  2.3434813722739047  2.4546546354097765  2.8684051139644073 
C  0.009239265022988219  4.8798687954436994  1.0433806832490733 
H  -0.6711738834552083  4.2793890042838365  0.6752093538566316 
H  0.6219380189284778  5.1564029812210865  0.3299824977599857 
H  -0.4253881935120529  5.670267490692512  1.4262075433782027 
C  3.320743380293832  1.3605994116387727  2.6065682467736346 
H  4.0293775878872164  1.387005072475856  3.2839884641455885 
H  3.714372961093953  1.4794273641817628  1.7169288305978512 
H  2.862607168589232  0.496108264843485  2.6481683505900984 
C  0.8527520605980283  -3.0756976546501287  -0.40693245598767874 
C  1.6470075672879114  -4.188236948810801  -0.1938282114469404 
H  2.519281136038993  -4.085357619121292  0.16878165436052384 
C  1.1727476651713475  -5.455723977826966  -0.5063185417296083 
H  1.7153672518360008  -6.220205519081249  -0.350014423903607 
C  -0.08657396570153142  -5.603258523117686  -1.044745071500917 
H  -0.4103147696347855  -6.470124667228494  -1.2597897879277682 
C  -0.8787443724849624  -4.5020184160555425  -1.2727412846587443 
H  -1.7396341752137114  -4.60879003773891  -1.6581274524966796 
C  -0.4229927530939419  -3.238320527903441  -0.9402883422708498 
H  -0.9801132377435484  -2.480926566452589  -1.075433533608018 
C  3.095136034519202  -1.5906648326094694  0.6937353826282996 
C  4.236479532659086  -1.1671745074588393  0.029883513791878178 
H  4.18373726493021  -0.853194514715632  -0.8650882608199304 
C  5.460926441949591  -1.2076043105068301  0.6903494533788405 
H  6.245652347581095  -0.9150100987976277  0.24222771734599202 
C  5.5477639010801445  -1.6586778853670916  1.9656415241432508 
H  6.387185931068232  -1.6584467315151725  2.407946172704162 
C  4.438017464031805  -2.1130536084654623  2.6192827160194967 
H  4.513544203004573  -2.458344586221187  3.5019805308919723 
C  3.200404877556653  -2.0715242465731145  1.9926346107011028 
H  2.425592010947184  -2.3719613555668704  2.4522711467552925 
Br  -1.5839191898578664  1.5839191898578664  0.0 
C  -1.2937473829822488  -1.2398794889499034  -0.4598005675376139 
C  -1.601562203225019  -1.4938654694550033  -1.7919791134336869 
H  -1.1309417375171225  -1.0428217585005106  -2.480879663633267 
C  -2.60218398542082  -2.411889969420291  -2.121542410022959 
H  -2.8231586547736818  -2.5626138747145775  -3.03270050271447 
C  -3.2683208079706407  -3.09759503004543  -1.143064365570095 
H  -3.9596020908062854  -3.707191723557817  -1.3683280760515548 
C  -2.9347449854640226  -2.896087320001541  0.14198826503765638 
H  -3.3668350933519986  -3.405606940434718  0.8171022443470677 
C  -1.9675509241539992  -1.9516175659140573  0.5112421903797603 
H  -1.7755298364628027  -1.8022912010877177  1.4301324877763764 

-Ni 0
lanl2dz
F 1 1.0
3.130 1.0
****
-H 0
6-31g(d,p)
****
-P 0
6-31+g(d)
****
-N 0
6-31+g(d)
****
-C 0
6-31g(d)
****
-Br 0
6-31+g(d)
****

-Ni 0
lanl2dz


