%chk=SERIREYE_PN_Ni_gaussain.chk
%nprocshared=32
%mem=64GB
#p opt rwb97xd/gen pseudo=read

This Gaussian input file was generated using the DART python program. This file was generated on the 2023-08-13 at 16:51:13

0 1
Ni  0.0  0.0  0.0 
P  1.4490272564724238  -1.4072739640880165  1.6680118993969495e-15 
N  1.4490272564724243  1.4072739640880165  -5.054082629519267e-16 
C  2.508693189932022  1.0132205145456807  -0.6270114100788207 
C  2.5598815451205463  -0.4085621028117318  -1.0764831013713865 
C  3.689614510509938  1.8784025765111558  -0.9084780941778551 
C  4.0886994573589455  2.086787807449498  -2.2269108420741306 
C  5.113891366519061  2.9713492160780635  -2.4971111451043915 
C  5.78095338909141  3.606704337267586  -1.5026383913197754 
C  5.43883025293381  3.346483819198586  -0.16882952132318882 
C  4.390419919073989  2.5108778959680937  0.1056829973678842 
C  1.3393103166450986  2.7588993821228485  0.4797039946019817 
C  1.3784042731215127  3.851035774339845  -0.3782255266072316 
C  1.1978248770085465  5.116162796819633  0.13420093513231046 
C  1.0017070282680391  5.330879559661059  1.4739667546546362 
C  0.9632794540121807  4.230969300891297  2.3374400050740403 
C  1.1269895688645626  2.9561869729438186  1.835943430162681 
C  2.379872964458288  -1.7504864034036285  1.5222250127439836 
C  1.8132983468821195  -1.4496113848890966  2.745614041611057 
C  2.4950177636965214  -1.7103633915090732  3.915175676490508 
C  3.76280963926602  -2.2582457581807684  3.8591829758036535 
C  4.34775040250037  -2.526987140208033  2.65682378525664 
C  3.6681568922001624  -2.291082662137809  1.488162620511149 
C  1.240814392835737  -2.9991794474327538  -0.8396678959643389 
C  0.6552295401274371  -3.0087988963428143  -2.103408730345064 
C  0.3787369481074947  -4.209690480445411  -2.74721744400904 
C  0.6946318774399789  -5.401088774441802  -2.1303687926491457 
C  1.2386818046771757  -5.407562183481173  -0.8738335039888314 
C  1.5127061913731292  -4.209693166489562  -0.22573386378875315 
H  3.4678166102759973  -0.742685125051196  -1.0146780573153147 
H  2.2719760417193786  -0.47345189138902444  -2.0003123964523195 
H  3.6688176930754657  1.6331040072139476  -2.9210835608020056 
H  5.352313938588058  3.137502542272461  -3.3818651783376583 
H  6.4597761433751355  4.21022898966205  -1.70297561257133 
H  5.9218056810388155  3.7370505560430276  0.5239058754319141 
H  4.143515003624473  2.36410351139838  0.9899611395613228 
H  1.5256541672858743  3.7277368329624663  -1.2877764870947903 
H  1.208571971408887  5.844762050529604  -0.44382663121313165 
H  0.8960335582268704  6.193355908242244  1.8042471292873514 
H  0.8255107508249881  4.357698199848493  3.248601061414388 
H  1.0954963712111554  2.2271748714054755  2.4103462542436707 
H  0.9667331206855172  -1.0669653161479844  2.7812372625727093 
H  2.1048475497798154  -1.5187970036702227  4.736942731818586 
H  4.218985819940089  -2.4464995643056358  4.64700506654823 
H  5.212036106753351  -2.870225878596139  2.6285996839657404 
H  4.066096301203883  -2.4931073192089315  0.6721717414585233 
H  0.44913086555042003  -2.20376785127962  -2.520459330179263 
H  -0.015075761923453168  -4.2083197096863225  -3.5889674368249787 
H  0.537013975448504  -6.205422521022226  -2.5702332502763787 
H  1.425802891641778  -6.21618390820515  -0.45314584655447016 
H  1.879963062450101  -4.221233748078112  0.6281104402991574 
Br  -1.5839191898578664  1.5839191898578664  0.0 
C  -1.2937473829822488  -1.2398794889499034  -0.4598005675376139 
C  -1.601562203225019  -1.4938654694550033  -1.7919791134336869 
H  -1.1309417375171225  -1.0428217585005106  -2.480879663633267 
C  -2.60218398542082  -2.411889969420291  -2.121542410022959 
H  -2.8231586547736818  -2.5626138747145775  -3.03270050271447 
C  -3.2683208079706407  -3.09759503004543  -1.143064365570095 
H  -3.9596020908062854  -3.707191723557817  -1.3683280760515548 
C  -2.9347449854640226  -2.896087320001541  0.14198826503765638 
H  -3.3668350933519986  -3.405606940434718  0.8171022443470677 
C  -1.9675509241539992  -1.9516175659140573  0.5112421903797603 
H  -1.7755298364628027  -1.8022912010877177  1.4301324877763764 

-Ni 0
lanl2dz
F 1 1.0
3.130 1.0
****
-C 0
6-31g(d)
****
-N 0
6-31+g(d)
****
-H 0
6-31g(d,p)
****
-Br 0
6-31+g(d)
****
-P 0
6-31+g(d)
****

-Ni 0
lanl2dz


