%chk=EPELOXIW_PN_Pd_gaussain.chk
%nprocshared=32
%mem=64GB
#p opt rwb97xd/gen pseudo=read

This Gaussian input file was generated using the DART python program. This file was generated on the 2023-08-13 at 16:51:13

0 1
Pd  0.0  0.0  0.0 
P  1.516553809628924  1.4805960092138564  -5.394478744426882e-17 
N  1.516553809628923  -1.4805960092138564  -5.551115123125783e-16 
C  2.292254391392277  1.5562740600141518  -1.628705096105235 
C  3.664533223229039  1.5800114602106168  -1.7973943771062948 
H  4.21943209266746  1.5376990572255085  -1.0523368657357928 
C  4.219873580860484  1.6661217017664447  -3.059192508141938 
H  5.14368999569423  1.6780695017671976  -3.1627907309012637 
C  3.406256181574512  1.730484170938977  -4.159604908172571 
H  3.7753527678032692  1.7991852375141926  -5.009939750152886 
C  2.040268321881525  1.694506564847574  -4.003263138221729 
H  1.4912416047101846  1.7438330384740819  -4.753013265151775 
C  1.4735000482577645  1.587735191011481  -2.7510002234379565 
H  0.5493969645158402  1.5370938482458663  -2.6579787473070176 
C  1.0733839434661048  3.169655857030035  0.4065119189155724 
C  0.5077542186232629  3.4582374061771697  1.6483177788897025 
H  0.34499238101050067  2.7631001279492775  2.2438461565803416 
C  0.18581993963724197  4.7387425326273345  2.011683642928422 
H  -0.168635637600959  4.913228059666658  2.8530111799902658 
C  0.3945748967622156  5.772384323146944  1.1081358208585557 
H  0.17548225041513366  6.646250662748239  1.3417230054994636 
C  0.9166338426174768  5.512060083718085  -0.11176018594624876 
H  1.0475334403747434  6.211866187849183  -0.70968433826647 
C  1.259462488777176  4.226935064361664  -0.48758165153392746 
H  1.6123056350674145  4.064083821686746  -1.3325179963997744 
C  2.830557999805343  1.0585839234648466  1.174368544231605 
C  3.251358128544115  -0.29082683582852  1.266681676324101 
C  4.32112829856084  -0.6033680166234775  2.115273971628356 
H  4.628433207309766  -1.4797151072042047  2.1639911132676626 
C  4.922351110816364  0.3668306608420351  2.8796502377877293 
H  5.62196214918588  0.13929903985727177  3.448009108962967 
C  4.501279505097037  1.670895252387963  2.808648167866551 
H  4.898462621575435  2.3211088616433058  3.3400839723844986 
C  3.471121313790586  2.0112975308377097  1.9319281214945736 
H  3.213949730706271  2.9022246215438336  1.8574078162091543 
C  2.6754107905430073  -1.3983384256177303  0.5084147890528681 
H  3.226946004260051  -2.1368067236516697  0.3851572909890329 
C  1.2046505076178309  -2.7239549494945727  -0.7606719699177847 
H  0.3840157036252705  -3.1088634535385573  -0.41445736596421523 
H  1.9163216210171807  -3.3684450731081457  -0.6213633308550733 
C  1.0453561433639358  -2.477779468315525  -2.2496493767253187 
H  0.37598016013518665  -1.7699924227753834  -2.3553301755589184 
C  2.292622156553312  -2.006690234210171  -2.926159277504866 
H  2.701981738256069  -1.2165018285145481  -2.5162004669246305 
C  3.3113222688966837  -3.1152513270308164  -3.347031947793548 
C  2.3741670144141143  -3.3274524798400966  -4.578940284376341 
H  2.8355051689172326  -3.5573575976991796  -5.412275723429483 
C  1.1843358814644485  -4.178040639718145  -4.2656107655961835 
H  1.4648731351981736  -5.103771525436091  -4.184130482733359 
H  0.5512471045112015  -4.123975874919474  -4.997914440107745 
C  0.48494416105392824  -3.7444193270814283  -2.9579422033647407 
H  0.529179570371718  -4.4830991412872665  -2.332856976657745 
H  -0.45191524522575977  -3.588988099678491  -3.155585812958663 
C  1.9849845180646253  -1.8582360315565338  -4.443651324633819 
H  1.0551388475794776  -1.6730798489827619  -4.644368132935341 
H  2.5762500462472806  -1.2466466416318676  -4.9101433216868 
C  4.637950905049137  -2.502163260231302  -3.6899391423641617 
H  5.255932835594493  -3.1932563697847307  -3.9378013166611994 
H  4.97828803742732  -2.0285661475575254  -2.92737612779314 
H  4.527944125350514  -1.8911231322220652  -4.422523752073389 
C  3.5369473943486733  -4.34000849827487  -2.461201493219387 
H  4.19185375279047  -4.911633678089707  -2.868790717162032 
H  2.712217475517411  -4.819600142843078  -2.361796234581047 
H  3.8504957345042845  -4.058457756272439  -1.5987293092832697 
Br  -1.654629867976521  1.654629867976521  0.0 
C  -1.352040782177733  -1.3199206589279684  -0.4819701001757076 
C  -1.6380700204479186  -1.599217458033982  -1.8139382277462257 
H  -1.1579680913617836  -1.159339363685303  -2.503515938957912 
C  -2.63068216563725  -2.52632649780156  -2.142289956238523 
H  -2.8368222554424674  -2.694399528648736  -3.0538898079700485 
C  -3.3101544432602585  -3.1961573187854975  -1.1619874135498987 
H  -3.9960123560788676  -3.811990145619169  -1.3868663427944008 
C  -2.9974710358883443  -2.9701089012107795  0.12423560353005347 
H  -3.438659168087169  -3.468581175155742  0.8017084178296768 
C  -2.0389854250767776  -2.015940632791841  0.4912562833419403 
H  -1.8619130127668426  -1.8492165108145995  1.4101568590026907 

-Pd 0
lanl2dz
F 1 1.0
1.472 1.0
****
-C 0
6-31g(d)
****
-N 0
6-31+g(d)
****
-H 0
6-31g(d,p)
****
-Br 0
6-31+g(d)
****
-P 0
6-31+g(d)
****

-Pd 0
lanl2dz


