%chk=EKOJOLOG_PN_Pd_gaussain.chk
%nprocshared=32
%mem=64GB
#p opt rwb97xd/gen pseudo=read

This Gaussian input file was generated using the DART python program. This file was generated on the 2023-10-04 at 16:41:16

0 1
Pd  0.0  0.0  0.0 
P  1.4419963540175806  1.5533018106601177  2.4188297859109493e-15 
N  1.441996354017582  -1.5533018106601182  0.0 
C  1.1253104140887498  -2.673809453189894  -0.7196396031929932 
H  0.2987453002354836  -2.6975172733619104  -1.1885126263276737 
C  0.6205352857928879  3.4057985245969498  -1.89289401136051 
H  0.23146479351851457  3.873461981894593  -1.1628554557007362 
C  1.991299497798466  1.609595236316294  -2.7125710527948415 
H  2.525068821981853  0.8390651263363413  -2.555091536110607 
C  1.9639102956275427  -3.771992641603914  -0.790450431234683 
H  1.7186838020787876  -4.528642850812465  -1.309060793420442 
C  6.609777342181284  5.933316907087951  2.8115581486852985 
H  7.19484518833961  6.659911489193254  2.989430261864679 
C  3.1522548408324207  -3.759522550558459  -0.10483494226788548 
H  3.715291056091863  -4.5254430444606735  -0.10298093932212282 
C  4.805240114902084  4.4900521341927995  3.537421641832207 
H  4.170178704505117  4.2394849795491085  4.198631015660492 
C  3.524799440215655  -2.6063097314484738  0.5930661791746803 
H  4.363229107985248  -2.5610602863518173  1.0381358253226205 
C  2.6487346941998187  -1.5278151764926247  0.6238596154689497 
C  3.0225201382612896  -0.26725845688905525  1.3483533548967492 
H  3.885585956384991  -0.39853857811246374  1.8165580893432043 
H  2.3334455128330642  -0.05806224159467788  2.026668174208165 
C  3.146922718735412  0.9140352636276334  0.3564465075369563 
H  3.5091439297976716  0.5442919909046544  -0.49920468105142257 
C  4.068053538299674  2.045300387340604  0.78147381621202 
C  5.018997449079372  2.478762139834065  -0.17260821258652004 
H  5.069094721310384  2.0423436502992383  -1.01555380116693 
C  5.861294568572383  3.5042962241103375  0.09766647080317581 
H  6.489109372537924  3.777970130934243  -0.5600925843572244 
C  5.822708608026503  4.171228946322092  1.3294030163728932 
C  6.697675037778662  5.264704929768077  1.6289431145794906 
H  7.35136665213379  5.5276945092538545  0.9911211061761263 
C  1.387715256305944  2.278642515388447  -1.6504857116908007 
C  5.648903782226922  5.548580237820805  3.7724642768278445 
H  5.5857137632086795  6.027370663413589  4.591642261063963 
C  0.9894970149320421  3.188045842742894  -4.256853137905669 
H  0.8272850856503826  3.4765830554881303  -5.147528514718088 
C  4.872817603258959  3.763250644455126  2.3094682153609396 
C  3.9787292010601236  2.6709626593667917  2.017498376704158 
C  2.8852616176463526  2.2956711055944687  2.978024062821107 
C  3.1809912319248097  1.6873370950917523  4.252451085802177 
C  4.503054177941497  1.4120683565468013  4.682555234061224 
H  5.2372877537313585  1.6625916111579737  4.133554637447832 
C  4.735824666732398  0.7874437096549822  5.884558133410208 
H  5.62734135046683  0.6072575873707  6.156076998241582 
C  3.661340276160947  0.4101470207707143  6.721157842336328 
H  3.828354696671371  -0.024161582599357967  7.549512935506105 
C  2.360626024280031  0.6786133626870867  6.324649685784738 
H  1.6370909017834845  0.43231672389194165  6.888264618369159 
C  2.1036220332742737  1.3060709715762469  5.107152216524847 
C  0.7683403739529127  1.5311876311978538  4.673973235224009 
H  0.04346927515199095  1.2993721478649813  5.242079415273384 
C  0.5143286175050517  2.087245899508849  3.4290407391306235 
H  -0.3815462908041847  2.2268251676923203  3.1486850604734737 
C  1.5785969485162283  2.446684355814214  2.5767103068829416 
C  1.2374083878397673  2.9435469518038575  1.184641760880263 
H  1.8371968353239452  3.6910860533687586  0.9360879238628603 
H  0.3030879771647168  3.2720043748871266  1.1621172982336723 
C  1.800959411282889  2.0920598094320075  -4.023962682764158 
H  2.232496816633252  1.662183136130358  -4.752630016692728 
C  0.41225656618984585  3.866292451206111  -3.193508065765829 
H  -0.12077442913940861  4.636844025140958  -3.3501602918107984 
Br  -1.654629867976521  1.654629867976521  0.0 
C  -1.352040782177733  -1.3199206589279684  -0.4819701001757076 
C  -1.6380700204479186  -1.599217458033982  -1.8139382277462257 
H  -1.1579680913617836  -1.159339363685303  -2.503515938957912 
C  -2.63068216563725  -2.52632649780156  -2.142289956238523 
H  -2.8368222554424674  -2.694399528648736  -3.0538898079700485 
C  -3.3101544432602585  -3.1961573187854975  -1.1619874135498987 
H  -3.9960123560788676  -3.811990145619169  -1.3868663427944008 
C  -2.9974710358883443  -2.9701089012107795  0.12423560353005347 
H  -3.438659168087169  -3.468581175155742  0.8017084178296768 
C  -2.0389854250767776  -2.015940632791841  0.4912562833419403 
H  -1.8619130127668426  -1.8492165108145995  1.4101568590026907 

-Pd 0
lanl2dz
F 1 1.0
1.472 1.0
****
-H 0
6-31g(d,p)
****
-P 0
6-31+g(d)
****
-N 0
6-31+g(d)
****
-C 0
6-31g(d)
****
-Br 0
6-31+g(d)
****

-Pd 0
lanl2dz


