%chk=DEYERISI_PN_Ni_gaussain.chk
%nprocshared=32
%mem=64GB
#p opt rwb97xd/gen pseudo=read

This Gaussian input file was generated using the DART python program. This file was generated on the 2023-10-04 at 16:41:16

0 1
Ni  0.0  0.0  0.0 
P  1.446846721321923  1.4095157200258532  1.4218957881217855e-15 
C  2.6695587340567943  0.4312892374047792  0.9632493408316993 
H  3.564428266199961  0.7736307119582875  0.8138476499363356 
H  2.471726915765289  0.4900118957079309  1.9121723677802958 
C  2.573198341068461  -1.0086132171508697  0.49604880998037243 
N  1.4468467213219236  -1.4095157200258537  -2.7755575615628914e-16 
C  3.822908515834066  -1.8253386879238276  0.6767711784852233 
H  4.570708134034161  -1.226486686482852  0.8295762876601032 
H  3.999798594804666  -2.317247628809767  -0.13854141422891392 
P  3.712139325391653  -3.0378829048614375  2.1094185595319055 
N  1.28283311077297  2.825693111054444  0.8692369715412247 
N  2.0793079979946554  1.7449740858192675  -1.4840119299819479 
N  4.08200464369921  -2.072471749337015  3.445196365569395 
N  5.019051339058783  -4.032871304121204  1.6855632258730175 
C  1.3387283334749722  -2.8125461062096457  -0.5421530500277041 
H  2.2431941300483063  -3.1859926151924225  -0.5805449470576236 
C  0.5299544826325762  -3.6778090668651187  0.3837537039768862 
H  0.9311345664360595  -3.6729079260677153  1.2570788777686035 
H  0.5099804115274704  -4.575311302581082  0.04573452794046873 
H  -0.36442220865555286  -3.3353805730621935  0.44051875231099796 
C  0.8109780122420669  -2.730436670780378  -1.967970499441233 
H  1.3828161770073093  -2.1618233530195097  -2.4892103657052256 
H  -0.07814071677000656  -2.3690617972949966  -1.9613965711347798 
H  0.7961680660702035  -3.608944606099671  -2.356086465455775 
C  0.8561482370652727  2.6259348635942192  2.3061447629880627 
H  0.723013482564874  1.6567155171260988  2.3703095942901897 
C  -0.4273471128806814  3.166610415610072  2.7109007068844853 
H  -1.0871332587724243  2.9555211806531583  2.0463507339143256 
H  -0.35891611667959933  4.119468738449751  2.8019611008770227 
H  -0.6860854513773587  2.7827761367060546  3.550975476491482 
C  2.0037454488082638  2.8889339701194015  3.2751293911255437 
H  2.810716702007693  2.4974003553046087  2.930558476828041 
H  1.7986730976243215  2.4971654554767477  4.127141903776991 
H  2.125569339205024  3.8357304130675676  3.378812877512234 
C  1.3613071877812577  4.138662830871442  0.24128598294309236 
H  1.6610962749893345  3.9659677508935234  -0.6765860792433465 
C  0.025203953014578673  4.883493778894316  0.09372740164945265 
H  -0.6283896839017109  4.295732980465759  -0.29189280219519326 
H  0.14443564939464126  5.6474792844836035  -0.4739850694376488 
H  -0.27725705933127665  5.171069230690316  0.9590618488634 
C  2.437563881215008  5.022445386327545  0.8516066318732725 
H  3.255069556349155  4.525441099644493  0.926231427632741 
H  2.157799490322003  5.312079970887206  1.721935410562816 
H  2.577976861540587  5.788133646959507  0.2892582856620524 
C  1.2366575157436335  1.5251273962099343  -2.6982259835284963 
H  0.5311098797452837  0.9094807434829375  -2.4102423341259653 
C  0.5122297522115364  2.7793531312500335  -3.1223937816780327 
H  0.08964130308484264  3.178347670303266  -2.3581058382493816 
H  -0.15450525273034965  2.5577616295998995  -3.7766478451592156 
H  1.140846965788639  3.397530153060062  -3.501654850732916 
C  1.915829452163717  0.838291835424388  -3.795698740921526 
H  2.354596465927856  0.053857976836617194  -3.4598210263681484 
H  2.567372725450457  1.4260187498746972  -4.186509560968174 
H  1.2723900511455115  0.5845405328185267  -4.462068580907692 
C  3.4988759513348207  2.2249834928712087  -1.5378008228061824 
H  3.7378886920068597  2.5024292314634877  -0.6302117462228141 
C  3.696132041786674  3.4632370293184547  -2.45021427856818 
H  3.0728864138174963  4.149339593667479  -2.1968722993957495 
H  3.544671023360645  3.2160836098492425  -3.3644397196613713 
H  4.591694478373968  3.7947392171702017  -2.3510796144825545 
C  4.4983022487316875  1.124586719735858  -1.9430236846303135 
H  4.377044978262047  0.3585775722960578  -1.3782063686804331 
H  5.3958283581292115  1.4554279784565824  -1.8434020279594387 
H  4.349079738735716  0.8750404039320527  -2.8573050465639755 
C  5.322343359452359  -1.3493714777193946  3.631972561564559 
H  5.815228828950691  -1.4001566651302075  2.7856327665075944 
C  5.114323269050467  0.1375496897590056  3.942537681457074 
H  4.560596884621473  0.5304112074651317  3.2635767627785004 
H  5.964221315634264  0.5837210066624194  3.958135321845749 
H  4.687851362844301  0.23071375180833908  4.797265539175184 
C  6.193249702066722  -1.988740203584665  4.688184696876143 
H  6.314306174499254  -2.918146184225997  4.4819663814181805 
H  5.77070206068689  -1.9027478387760093  5.545159086201128 
H  7.047039927294422  -1.5496729330269108  4.705962582875471 
C  3.1462936137334445  -2.0944949623874036  4.594360730004441 
H  3.555586756843071  -1.5280511557263783  5.280595811371504 
C  1.835089464394531  -1.4590531171672787  4.277698749180007 
H  1.9849710684423643  -0.6001265562220823  3.878187851117258 
H  1.329807440568987  -1.3521070981493188  5.085826681759388 
H  1.3492523960060867  -2.0168577864089796  3.666448551673383 
C  2.9880801557849304  -3.4606176190149425  5.232007410206661 
H  3.8549356066074534  -3.8295592403190755  5.417667846080263 
H  2.51502604350682  -4.041136674868391  4.630913130872862 
H  2.495883125032244  -3.3755763149010742  6.051876570202829 
C  6.300566173715194  -3.6329396985413362  1.0719617107070953 
H  6.320390811134324  -2.652779147387882  1.073661038149033 
C  6.445532838586748  -4.0711453753029065  -0.37580159554501275 
H  5.686153542452813  -3.770247773400161  -0.8789006988758779 
H  6.49833604164711  -5.028481778741702  -0.41787560649510286 
H  7.244914934270873  -3.689529443420902  -0.747108686284595 
C  7.501035756392895  -4.098569113435668  1.8946281917617185 
H  7.393241588058628  -3.8154137968048776  2.8057469402994015 
H  8.304656459073565  -3.717368419916519  1.5333670846887881 
H  7.557982857855626  -5.056343028844883  1.8626232765657877 
C  4.817144856730032  -5.503067290982556  1.7396973427532585 
H  5.638509112141332  -5.916936641080546  1.4048894411408162 
C  4.6155392165914435  -6.005853052738375  3.1353895522464517 
H  5.335381415354115  -5.701592625623639  3.6927697558529826 
H  4.597037887022769  -6.966104521218042  3.1310412092475195 
H  3.782996761041206  -5.673202991913654  3.4776516400384283 
C  3.6810513389696213  -5.976138942845913  0.836930240391796 
H  3.8221751350943833  -5.647439909257623  -0.05407756512140943 
H  2.844958897527929  -5.6433010089834985  1.1717490557924106 
H  3.6606421557934805  -6.93589153785435  0.8248120055099759 
Br  -1.5839191898578664  1.5839191898578664  0.0 
C  -1.2937473829822488  -1.2398794889499034  -0.4598005675376139 
C  -1.601562203225019  -1.4938654694550033  -1.7919791134336869 
H  -1.1309417375171225  -1.0428217585005106  -2.480879663633267 
C  -2.60218398542082  -2.411889969420291  -2.121542410022959 
H  -2.8231586547736818  -2.5626138747145775  -3.03270050271447 
C  -3.2683208079706407  -3.09759503004543  -1.143064365570095 
H  -3.9596020908062854  -3.707191723557817  -1.3683280760515548 
C  -2.9347449854640226  -2.896087320001541  0.14198826503765638 
H  -3.3668350933519986  -3.405606940434718  0.8171022443470677 
C  -1.9675509241539992  -1.9516175659140573  0.5112421903797603 
H  -1.7755298364628027  -1.8022912010877177  1.4301324877763764 

-Ni 0
lanl2dz
F 1 1.0
3.130 1.0
****
-H 0
6-31g(d,p)
****
-P 0
6-31+g(d)
****
-N 0
6-31+g(d)
****
-C 0
6-31g(d)
****
-Br 0
6-31+g(d)
****

-Ni 0
lanl2dz


