%chk=SABIPUNU_PN_Ni_gaussain.chk
%nprocshared=32
%mem=64GB
#p opt rwb97xd/gen pseudo=read

This Gaussian input file was generated using the DART python program. This file was generated on the 2023-10-04 at 16:41:16

0 1
Ni  0.0  0.0  0.0 
P  1.4282950946845667  1.428311283474299  -6.721361040651267e-16 
N  1.428295094684568  -1.428311283474299  -7.216449660063518e-16 
C  2.2392258855152862  -0.979160823471268  -0.9854444716785211 
C  3.208263570299882  -1.7802846038678317  -1.5679743197983158 
H  3.754429700603775  -1.4547916560916718  -2.245603937699477 
C  3.3381862380879994  -3.0792796594042566  -1.1094029664772138 
H  3.954233048542246  -3.652948301863556  -1.5050717623002559 
C  2.557844925991862  -3.5183533524122184  -0.07367726015122318 
H  2.6592385844558617  -4.384679106690462  0.2520715748390484 
C  1.619181951321186  -2.671044254596933  0.4895872449810191 
C  2.0598913296798638  0.4439512729729205  -1.4211710121113306 
H  1.430967487153085  0.48713751375508263  -2.1583678100618378 
H  2.907547227607675  0.8063118143956927  -1.723349447357825 
C  0.8567742037356656  -3.0851115183949256  1.7039568870062456 
C  1.1977293083942417  -2.5191536495795974  2.941448287919115 
C  0.47621175886600764  -2.90602987634711  4.079716226888206 
H  0.7033951051065646  -2.5455340194863223  4.906217155125522 
C  -0.5604394876413576  -3.81335997658105  4.001347532091045 
C  -0.8441391427357594  -4.373119739211523  2.785068791900624 
H  -1.5235351255595786  -5.005413270354975  2.736457486661923 
C  -0.16211487240446187  -4.042152470052855  1.6200948731261442 
C  -1.367231961301774  -4.172663596833683  5.238196040566652 
H  -1.0297795836684953  -3.6851538515446545  5.993062459926989 
H  -1.292311626118329  -5.114246121987906  5.405962877874257 
H  -2.289221783354364  -3.9457426211682045  5.0966103815666655 
C  -0.5275553108574624  -4.6773177281422855  0.3069525918559372 
H  0.04238001953436288  -4.33256185405704  -0.38460738128804844 
H  -1.4420664221499457  -4.474624170827677  0.09666961787626223 
H  -0.416093261889273  -5.629255695538777  0.3691471886377297 
C  2.3116421801795894  -1.5319317174177955  3.0809645619865638 
H  2.387967744375004  -1.2634496684156953  3.999155613791091 
H  2.125331904145063  -0.7607980312644164  2.5391560634158385 
H  3.134405261923714  -1.933197100973321  2.7944496002847847 
C  1.0494803019906012  3.088794199516933  -0.6671326317658284 
C  1.794129856019576  4.171087550333144  -0.2106639203917778 
H  2.4694590184218184  4.03293445493785  0.4140876339414674 
C  1.5427087556697838  5.458286815837708  -0.6775539408285092 
H  2.034436361639896  6.1799491536809885  -0.35769990901794096 
C  0.5623413144144359  5.646571395754936  -1.6095515572910668 
H  0.3927973303206129  6.501821108568665  -1.9338291948019328 
C  -0.17644152554775383  4.587091391284867  -2.0740273214655978 
H  -0.8336497793257864  4.740643475860239  -2.7152989787907846 
C  0.030151097878413635  3.2911441237554175  -1.6156531754572867 
C  -0.8237081581346355  2.1885527641399785  -2.177681025854624 
H  -0.5734146123829449  1.3535690047881537  -1.7748989972414488 
H  -0.6940728019151439  2.1360422848993736  -3.127360810828379 
H  -1.7465896688309916  2.370364451833387  -1.990066294469026 
C  2.8815072461938565  1.6653381444373374  1.0971135401077745 
C  4.1463762030999955  1.337672413994048  0.6263963628683196 
H  4.242404378662288  1.0395112078708997  -0.24946460478658067 
C  5.267148290741725  1.4456675490774828  1.4329715102424252 
H  6.1106056518406815  1.2448217297388582  1.0957273155374716 
C  5.116666779540262  1.8530744860195099  2.7326149392328865 
H  5.856011634493229  1.9000861884242326  3.293339243407078 
C  3.8710621709878175  2.195121717356663  3.206772656335067 
H  3.7895574700466796  2.484854368626756  4.086871329503332 
C  2.735114395000877  2.1208145504050466  2.4182720569884624 
C  1.3979584345926854  2.528590615565901  2.9904457441035026 
H  0.7171111854227734  2.4188354929859828  2.3227284338851333 
H  1.432869879583579  3.448393686647387  3.2633753164068904 
H  1.1935865019680543  1.9768777857945188  3.749896517110495 
Br  -1.5839191898578664  1.5839191898578664  0.0 
C  -1.2937473829822488  -1.2398794889499034  -0.4598005675376139 
C  -1.601562203225019  -1.4938654694550033  -1.7919791134336869 
H  -1.1309417375171225  -1.0428217585005106  -2.480879663633267 
C  -2.60218398542082  -2.411889969420291  -2.121542410022959 
H  -2.8231586547736818  -2.5626138747145775  -3.03270050271447 
C  -3.2683208079706407  -3.09759503004543  -1.143064365570095 
H  -3.9596020908062854  -3.707191723557817  -1.3683280760515548 
C  -2.9347449854640226  -2.896087320001541  0.14198826503765638 
H  -3.3668350933519986  -3.405606940434718  0.8171022443470677 
C  -1.9675509241539992  -1.9516175659140573  0.5112421903797603 
H  -1.7755298364628027  -1.8022912010877177  1.4301324877763764 

-Ni 0
lanl2dz
F 1 1.0
3.130 1.0
****
-H 0
6-31g(d,p)
****
-P 0
6-31+g(d)
****
-N 0
6-31+g(d)
****
-C 0
6-31g(d)
****
-Br 0
6-31+g(d)
****

-Ni 0
lanl2dz


