%chk=OROFETUX_PN_Ni_gaussain.chk
%nprocshared=32
%mem=64GB
#p opt rwb97xd/gen pseudo=read

This Gaussian input file was generated using the DART python program. This file was generated on the 2023-10-04 at 09:55:46

0 1
Ni  0.0  0.0  0.0 
P  1.4422729448686196  1.4141954435296413  -5.84810991033482e-17 
N  1.4422729448686196  -1.4141954435296418  -1.1102230246251565e-16 
H  1.2928574072086212  -2.0819702651221883  0.6146320889384356 
H  1.4229359738518663  -1.8014633013817951  -0.8347756452044581 
C  1.3556450194654541  2.8162801900701497  -1.1259920674937334 
C  2.8003543618875897  -0.8787831365077877  0.22563480723800328 
H  3.4766332194919958  -1.5073070997738087  -0.13114119301656058 
H  2.961940113521421  -0.7611745020287489  1.194379992498253 
C  2.907714112858664  0.4551561882376465  -0.48476384969283415 
H  2.9267050699986368  0.32476549800902577  -1.4654761272995844 
H  3.7347950443995988  0.9260730993668695  -0.21152401823721478 
C  1.8164812859384858  2.0663909687096575  1.6364260002850632 
H  2.6433858509921873  2.590175742157397  1.598615533511063 
H  1.9288859122672095  1.3238075762904695  2.2660099941120144 
H  1.0802460194621988  2.639151207547905  1.9361358453061315 
C  1.1456571104340503  2.5790251476111137  -2.4848692153214422 
H  1.0051018330447974  1.6922989028495166  -2.7961323850814273 
C  1.53199137372841  4.126640128987007  -0.6737752458031002 
H  1.6575835468173572  4.298587935856676  0.2524710377368252 
C  1.143320857765454  3.643906672219444  -3.3813942459097284 
H  1.0059855339959538  3.483185969830025  -4.307783837101595 
C  1.5225805290678025  5.182715399087179  -1.584400986645985 
H  1.6413744876388479  6.0734500608083515  -1.2785153253025774 
C  1.3405034520644337  4.932968122912621  -2.927038382249611 
H  1.3502925031291308  5.654371278090172  -3.5460960872974776 
Br  -1.5839191898578664  1.5839191898578664  0.0 
C  -1.2937473829822488  -1.2398794889499034  -0.4598005675376139 
C  -1.601562203225019  -1.4938654694550033  -1.7919791134336869 
H  -1.1309417375171225  -1.0428217585005106  -2.480879663633267 
C  -2.60218398542082  -2.411889969420291  -2.121542410022959 
H  -2.8231586547736818  -2.5626138747145775  -3.03270050271447 
C  -3.2683208079706407  -3.09759503004543  -1.143064365570095 
H  -3.9596020908062854  -3.707191723557817  -1.3683280760515548 
C  -2.9347449854640226  -2.896087320001541  0.14198826503765638 
H  -3.3668350933519986  -3.405606940434718  0.8171022443470677 
C  -1.9675509241539992  -1.9516175659140573  0.5112421903797603 
H  -1.7755298364628027  -1.8022912010877177  1.4301324877763764 

-Ni 0
lanl2dz
F 1 1.0
3.130 1.0
****
-P 0
6-31+g(d)
****
-N 0
6-31+g(d)
****
-C 0
6-31g(d)
****
-H 0
6-31g(d,p)
****
-Br 0
6-31+g(d)
****

-Ni 0
lanl2dz


