%chk=IYULUBES_PN_Pd_gaussain.chk
%nprocshared=32
%mem=64GB
#p opt rwb97xd/gen pseudo=read

This Gaussian input file was generated using the DART python program. This file was generated on the 2023-10-04 at 16:41:16

0 1
Pd  0.0  0.0  0.0 
P  1.5155427583872387  -1.481630907986196  2.2266516906374094e-16 
C  2.192236523630045  -2.46545338505724  2.4867026403837333 
H  1.6717784696593425  -1.7361108820253932  2.8032171224035474 
C  2.305857477673067  -2.6898328294978646  1.117905765856727 
C  2.837961920280992  -3.304359652671077  3.3962382121335404 
H  2.7553079180857685  -3.1499563807314157  4.330427789005067 
C  3.7090890279226816  -4.588849247712471  1.5758474649140508 
H  4.227796127529112  -5.321758644477104  1.2656694983335957 
C  3.596969618244793  -4.3601453288258405  2.928697732112681 
H  4.042562114571203  -4.929979776426244  3.544536712322221 
C  3.0762965773718043  -3.767510597552955  0.6662240173930432 
H  3.1634859083678544  -3.9327627319949836  -0.26598743534868297 
N  1.5155427583872387  1.481630907986196  -2.3695860612956595e-16 
C  2.7510940903786842  0.9849191587690576  -0.43128183848136825 
C  1.3415581289354035  2.779113394776968  0.01900618809076269 
H  0.49333008042892335  3.1057633737908446  0.29929385984450657 
C  2.3312500901862805  3.738821569961208  -0.347799114924298 
C  3.815647632839433  1.8468976974969356  -0.7868478436151984 
C  3.5972347456789495  3.2772315907608207  -0.7463448251746077 
C  5.0438435337186736  1.2796049524080686  -1.1543744418812765 
H  5.771922763804156  1.846061524335777  -1.3812051206662193 
C  2.057335390493928  5.124859255818619  -0.28468603644218304 
H  1.196792367453541  5.430920227249315  -0.021002405430650656 
C  5.210288862493589  -0.08165521308167072  -1.1931074301452673 
H  6.053864708889602  -0.4472263597690655  -1.4353242505498065 
C  4.579516938837267  4.224444282150676  -1.0918046785209743 
H  5.441415141966611  3.936865130215238  -1.372387890446561 
C  3.043573218483731  6.028701678909105  -0.6081797162318962 
H  2.8745428155696384  6.961405814298857  -0.5488976049541037 
C  4.287781059872369  5.568555885293984  -1.021738244188204 
H  4.9553954597441745  6.199900429308258  -1.2633108830098116 
C  1.1231836878725368  -2.4322657742056055  -1.5132617390633045 
C  0.5831250985365565  -3.713707923371199  -1.4211221252899453 
H  0.47345025844135824  -4.11665171442065  -0.5681727828874773 
C  0.2030985832954182  -4.409960484950192  -2.5665320991457716 
H  -0.15504935576918655  -5.286437145230622  -2.4920100371275633 
C  1.2426496183014473  -1.8467660688983774  -2.7722936872488675 
H  1.600081023827077  -0.9706912732097245  -2.8529276298727018 
C  0.841090695854909  -2.5370693519138054  -3.9155655487331478 
H  0.907626533629071  -2.1217411674900672  -4.767020475029875 
C  0.34703739191909966  -3.8245773471356292  -3.81174649889161 
H  0.10726063826425025  -4.306573994310496  -4.593612971199312 
C  2.925137556510518  -0.4222044769234992  -0.49290850293903254 
C  4.149701269706325  -0.935954977062965  -0.8785807678616636 
H  4.271000898534739  -1.8765533693401488  -0.9307647164634181 
Br  -1.654629867976521  1.654629867976521  0.0 
C  -1.352040782177733  -1.3199206589279684  -0.4819701001757076 
C  -1.6380700204479186  -1.599217458033982  -1.8139382277462257 
H  -1.1579680913617836  -1.159339363685303  -2.503515938957912 
C  -2.63068216563725  -2.52632649780156  -2.142289956238523 
H  -2.8368222554424674  -2.694399528648736  -3.0538898079700485 
C  -3.3101544432602585  -3.1961573187854975  -1.1619874135498987 
H  -3.9960123560788676  -3.811990145619169  -1.3868663427944008 
C  -2.9974710358883443  -2.9701089012107795  0.12423560353005347 
H  -3.438659168087169  -3.468581175155742  0.8017084178296768 
C  -2.0389854250767776  -2.015940632791841  0.4912562833419403 
H  -1.8619130127668426  -1.8492165108145995  1.4101568590026907 

-Pd 0
lanl2dz
F 1 1.0
1.472 1.0
****
-H 0
6-31g(d,p)
****
-P 0
6-31+g(d)
****
-N 0
6-31+g(d)
****
-C 0
6-31g(d)
****
-Br 0
6-31+g(d)
****

-Pd 0
lanl2dz


