%chk=DIPAVISA_PN_Pd_gaussain.chk
%nprocshared=32
%mem=64GB
#p opt rwb97xd/gen pseudo=read

This Gaussian input file was generated using the DART python program. This file was generated on the 2023-10-04 at 09:55:46

0 1
Pd  0.0  0.0  0.0 
C  3.0294379169576224  -0.7294581554360193  -0.34436675163672864 
H  3.373517203499911  -0.32044875530931577  0.4888873123681015 
H  3.689197003283367  -1.4009563643084877  -0.6506325079525497 
P  1.4376850585229017  -1.5572930592858873  1.9071339603888512e-16 
N  2.8804879124411693  0.3095510569610152  -1.37227900601872 
C  2.4237527799372716  1.5289436489184862  -0.9361798597046027 
N  1.4376850585229017  1.5572930592858873  -1.9071339603888512e-16 
C  1.1509046227056465  2.7437506396254947  0.5852586451195392 
H  0.5258164685042385  2.753285180931939  1.2999887074501775 
C  1.7179028163679404  3.9339514043100405  0.19830950359312402 
H  1.5020231251780682  4.743463732437979  0.6463466443980517 
C  2.610277956729221  3.9235594039710553  -0.8581890648839821 
H  2.9652668747128983  4.740139136615035  -1.1896338692539776 
C  2.981006693599059  2.730199847194893  -1.4259187205387804 
H  3.6061383487756093  2.7122335563717455  -2.1412841628759662 
C  3.8665645176238663  0.2688295693631188  -2.452736866908812 
H  3.528888027406044  0.7738796884207758  -3.222394943715685 
H  4.024533681629486  -0.6623344985387537  -2.7163051348619396 
H  4.706665440983736  0.6674864928613117  -2.143693640293381 
C  1.7830319343820809  -2.513550782339552  1.531852607934126 
H  2.7394514846338494  -2.8014783835873307  1.4845243886993988 
C  1.6513014733342146  -1.6028659619433636  2.7701403949739913 
H  2.2298849764504203  -0.8070988758380243  2.656791223855726 
H  0.7156756470226595  -1.2913064727984698  2.8523239569715804 
C  2.0513050665861248  -2.3453697110644374  4.034070902528403 
H  1.9090838805213135  -1.7588567297384723  4.81908567752974 
H  3.014779382353278  -2.571332196353727  3.991578454977048 
C  1.239257363728954  -3.6252521764200463  4.2047616555282525 
H  1.5542568337042741  -4.111402432780378  5.006927238282878 
H  0.2849425754732209  -3.396711961797113  4.339126179181364 
C  1.3806659238242678  -4.518542611836173  2.9797350814794155 
H  0.8256748647325962  -5.3300642277993955  3.0976713403345615 
H  2.3245750229000532  -4.803859230535895  2.8864511076375985 
C  0.9445234336596543  -3.784414457098072  1.7159443904653258 
H  -0.013682121056628693  -3.5437203868555156  1.7838486573484928 
H  1.0601973331345682  -4.375565438289851  0.9304600071601727 
C  1.148136412268248  -2.771124867453589  -1.3411972013587206 
H  0.38710017341895986  -3.3504195060707285  -1.050581398575072 
C  2.3572625089462305  -3.692977367495106  -1.5572607579791788 
H  3.1283391141911965  -3.1611654197941554  -1.87690025980341 
H  2.609828807411996  -4.117243337256102  -0.6989377699484043 
C  2.017776797223255  -4.77126440215897  -2.582775834617148 
H  2.8075104467208014  -5.350205969787499  -2.727800122662739 
H  1.2829018417251765  -5.3369235404613935  -2.2369066121693293 
C  1.5973132884270675  -4.145048572591743  -3.9059927792525615 
H  1.3338700515778121  -4.8595938653770725  -4.538532529400084 
H  2.365280715147346  -3.658772623768562  -4.297679111785029 
C  0.43075396549235556  -3.1791086995342024  -3.719080265728963 
H  -0.37252954969264174  -3.688824979502723  -3.444698983264011 
H  0.23102172651693387  -2.7386181727771133  -4.583089720857248 
C  0.7302675969520509  -2.112259518454664  -2.6697175832403053 
H  -0.07460742457230185  -1.5542560618679648  -2.5241326177957837 
H  1.458795879685473  -1.5241599154037329  -2.993125387952614 
Br  -1.654629867976521  1.654629867976521  0.0 
C  -1.352040782177733  -1.3199206589279684  -0.4819701001757076 
C  -1.6380700204479186  -1.599217458033982  -1.8139382277462257 
H  -1.1579680913617836  -1.159339363685303  -2.503515938957912 
C  -2.63068216563725  -2.52632649780156  -2.142289956238523 
H  -2.8368222554424674  -2.694399528648736  -3.0538898079700485 
C  -3.3101544432602585  -3.1961573187854975  -1.1619874135498987 
H  -3.9960123560788676  -3.811990145619169  -1.3868663427944008 
C  -2.9974710358883443  -2.9701089012107795  0.12423560353005347 
H  -3.438659168087169  -3.468581175155742  0.8017084178296768 
C  -2.0389854250767776  -2.015940632791841  0.4912562833419403 
H  -1.8619130127668426  -1.8492165108145995  1.4101568590026907 

-Pd 0
lanl2dz
F 1 1.0
1.472 1.0
****
-P 0
6-31+g(d)
****
-N 0
6-31+g(d)
****
-C 0
6-31g(d)
****
-H 0
6-31g(d,p)
****
-Br 0
6-31+g(d)
****

-Pd 0
lanl2dz


