%chk=IKEXAFUQ_PN_Ni_gaussain.chk
%nprocshared=32
%mem=64GB
#p opt rwb97xd/gen pseudo=read

This Gaussian input file was generated using the DART python program. This file was generated on the 2023-08-13 at 16:51:13

0 1
Ni  0.0  0.0  0.0 
N  1.4367944303204965  -1.41976116477385  1.8779569760506915e-16 
C  1.6156483826818981  -2.3893705498983375  -0.988039297803095 
C  0.7642870988899844  -2.8546497436035843  -1.992313287491773 
H  -0.12067666508352626  -2.5184633223641884  -2.079191113362955 
C  1.2506307841624325  -3.821430571996393  -2.858048523951379 
C  2.5689381058500045  -4.323293503367315  -2.731587052740705 
C  3.4161830322458187  -3.839537888661933  -1.7476336798933958 
H  4.307127819046779  -4.157786923225414  -1.6655200459973647 
C  2.91341699124622  -2.871316575030663  -0.8842396471089721 
N  3.515640753033151  -2.187430225628607  0.16763609262493784 
C  2.5925031081190726  -1.3173503800534765  0.659016648677453 
C  2.8694401612618208  -0.3070248967328473  1.6922843518161867 
C  3.5707789246931165  -0.6465505521460116  2.8464486287823902 
H  3.8556800756752407  -1.5436371900967512  2.977360729748299 
C  3.856018512317783  0.31628753915911667  3.808089901598634 
H  4.3179310522985705  0.07550298786844047  4.601895832080551 
C  3.4660334482049393  1.6218241188240814  3.604942100907633 
H  3.669090194780191  2.2843627121725145  4.254747564099613 
C  2.7749502834490603  1.9725156980512881  2.449309886208597 
H  2.521120454068718  2.878644029294184  2.315736816184313 
C  2.447882767863829  1.0250879028881064  1.4850252792583705 
P  1.4367944303204965  1.4197611647738504  4.817400832562993e-17 
C  0.35555735829137225  -4.373412190063001  -3.943924647464582 
H  0.15927501085013462  -5.315160220065622  -3.7571726780796753 
H  0.8086364430098552  -4.300031552118452  -4.809642652917581 
H  -0.4808415909391939  -3.863259762337333  -3.9679643690024453 
C  3.0606783959069603  -5.403741763300064  -3.6641687675212515 
H  3.995540673368061  -5.611273971752134  -3.4606700092073774 
H  2.989451646300447  -5.092426049807927  -4.590894329202499 
H  2.5146054281003822  -6.2088527695460165  -3.5477696633470597 
C  1.1323709351306113  3.2350214909080135  0.07959009950783015 
H  2.0193732732194363  3.6634189672517783  0.2531898244133217 
C  0.6274389830857108  3.8077825652183757  -1.2562928166038392 
H  1.2178660923877187  3.507648147844115  -1.9928939231117657 
H  -0.2878066462305413  3.474823820657069  -1.437611024287619 
C  0.6179603228986388  5.335918524864509  -1.1915486752669646 
H  1.5491988607932357  5.6632760562095985  -1.111567101066392 
H  0.24199497984498652  5.6934515928160145  -2.0340521744548097 
C  -0.19634261432409916  5.863132276424775  -0.02103277336891132 
H  -1.1546769445230511  5.672469982852942  -0.1776013569738901 
H  -0.08563565801286965  6.845626399105045  0.0378938651151853 
C  0.23492310757241253  5.2291017103447555  1.293764936696546 
H  -0.3672439524794022  5.533936386583369  2.018589323669733 
H  1.1529150475861503  5.524613501630316  1.5147069184044866 
C  0.19811614662955646  3.696487423527998  1.2116485225558842 
H  -0.7255904504421022  3.3908177512143958  1.0319485115541405 
H  0.49246525646847994  3.3068559603458687  2.0722852371083182 
C  2.5934504150523674  1.1099180440331378  -1.4187148739312212 
H  3.050392347854012  0.2485390809067579  -1.2001421127489906 
C  1.8546539172972014  0.8491274799674005  -2.7404521044725367 
H  1.1584795246709796  0.1596020518254523  -2.6030645177072635 
H  1.4105787311072107  1.6800259432225966  -3.0438355133308317 
C  2.8424388808474  0.3773662241883786  -3.802965889479551 
H  3.219212978909615  -0.4985914198552932  -3.535578782702 
H  2.3673532652181395  0.2568431677436994  -4.662701727215438 
C  3.9705140101519856  1.3756397473451827  -3.98653504704311 
H  3.6041276288783797  2.219104651662909  -4.3503153444775915 
H  4.621321628339219  1.0168167582115506  -4.639892741249498 
C  4.688914155999296  1.6646218593931288  -2.667605921061397 
H  5.373160549635636  2.364928333234717  -2.8147680612036434 
H  5.154395746808611  0.8450011732720546  -2.3621159547776482 
C  3.7161411928695025  2.1298189723915013  -1.5768536539256792 
H  4.199599315443786  2.230604688010644  -0.7188893987004923 
H  3.3353044534389698  3.010916079452645  -1.8223924000094849 
C  4.962168490295841  -2.4305313144339036  0.460849966702208 
H  5.32481638845163  -1.6848414151270459  1.0016412351551192 
H  5.473109350669564  -2.476212867507185  -0.38559760574950663 
C  5.109783656096347  -3.7402621558858153  1.2241296898544554 
H  4.7649184861627525  -3.622292719085027  2.1448832978015493 
H  4.564896841115482  -4.43955386750137  0.7818980752837693 
C  6.55285933242275  -4.188858670428068  1.2800928879021563 
H  7.055950249236624  -3.593463532165747  1.8911033368741754 
H  6.954428260429943  -4.1098363969755685  0.37858765421932977 
C  6.685162574330131  -5.6395808595563235  1.7666567913637174 
H  6.294757855874216  -5.706256711346562  2.673438036535562 
H  6.154219019001519  -6.222975542796538  1.1685424506042645 
C  8.086351942293469  -6.156104003163234  1.813959721769622 
H  8.65408881245121  -5.494626542516118  2.283740154865055 
H  8.426644618837464  -6.239216218039738  0.8884916272202178 
C  8.22665869558567  -7.481769183123129  2.4985142014295683 
H  7.953126218294737  -7.380667009348102  3.4442558544855597 
H  9.182127924164366  -7.744353827111038  2.4898413713834033 
C  7.386641843932204  -8.636461983345718  1.8561384888965127 
H  7.483434606920793  -9.447058186815838  2.4178123675421674 
H  6.431186711100488  -8.375927243998259  1.869495087967148 
C  7.7709176787358105  -8.988830855246569  0.4270075463648806 
H  7.446177557616767  -8.291861354635092  -0.1793506060112345 
H  7.371869645135263  -9.848223970281062  0.18437836281344486 
H  8.748365402458742  -9.05049664606565  0.3601219153852864 
Br  -1.5839191898578664  1.5839191898578664  0.0 
C  -1.2937473829822488  -1.2398794889499034  -0.4598005675376139 
C  -1.601562203225019  -1.4938654694550033  -1.7919791134336869 
H  -1.1309417375171225  -1.0428217585005106  -2.480879663633267 
C  -2.60218398542082  -2.411889969420291  -2.121542410022959 
H  -2.8231586547736818  -2.5626138747145775  -3.03270050271447 
C  -3.2683208079706407  -3.09759503004543  -1.143064365570095 
H  -3.9596020908062854  -3.707191723557817  -1.3683280760515548 
C  -2.9347449854640226  -2.896087320001541  0.14198826503765638 
H  -3.3668350933519986  -3.405606940434718  0.8171022443470677 
C  -1.9675509241539992  -1.9516175659140573  0.5112421903797603 
H  -1.7755298364628027  -1.8022912010877177  1.4301324877763764 

-Ni 0
lanl2dz
F 1 1.0
3.130 1.0
****
-C 0
6-31g(d)
****
-N 0
6-31+g(d)
****
-H 0
6-31g(d,p)
****
-Br 0
6-31+g(d)
****
-P 0
6-31+g(d)
****

-Ni 0
lanl2dz


