%chk=UJUWODER_PN_Ni_gaussain.chk
%nprocshared=32
%mem=64GB
#p opt rwb97xd/gen pseudo=read

This Gaussian input file was generated using the DART python program. This file was generated on the 2023-10-04 at 16:41:16

0 1
Ni  0.0  0.0  0.0 
C  1.169710836167728  -2.791253288052884  -0.21020715990518227 
H  0.30731909846285843  -3.141383296776869  -0.019769354495268236 
C  2.1335333773035043  -3.653066130012035  -0.6870963552460773 
H  1.9348739156510097  -4.5720947630720135  -0.8260826851920458 
C  3.3941739296348583  -3.154542881242926  -0.9602146780559269 
H  4.066208496200682  -3.7135291520483342  -1.3314124560554061 
C  3.656772201213898  -1.8237964263756894  -0.681253694006201 
H  4.530990859285268  -1.4735455571017242  -0.8123847599392912 
C  2.640097629461568  -1.0012543516572892  -0.2097319654822517 
C  2.912727366738771  0.434690418352375  0.14230038222753022 
H  3.6095398994663643  0.7951190990113656  -0.46172722508212394 
H  3.257025656565669  0.48487757522336716  1.0696350558527055 
C  1.4300223764908686  2.025108410026769  -1.814346129959184 
C  1.560730776916548  0.7353986476824349  -2.650746735513687 
H  0.8620869172909443  0.10062717762666155  -2.3852119200737865 
H  2.4414723267781966  0.3335685501384117  -2.4977272757868487 
H  1.4610155874445299  0.9505761491942993  -3.6021071266545386 
C  2.612532643397005  2.929818299015173  -2.191872507088321 
H  2.658590349904976  3.01755811541403  -3.166571261724605 
H  3.4461166525244993  2.534749868750357  -1.8586365769501632 
H  2.487841811475789  3.8150015155165837  -1.7895393992547426 
C  0.11450227250247602  2.716254907027676  -2.2121565819156914 
H  0.11118235124057474  2.8830246702464097  -3.1787302284625025 
H  0.034852770108100284  3.5682871671463783  -1.7337060468701542 
H  -0.6429481446173526  2.1388440229563765  -1.9797711551759523 
C  1.8243382137590745  2.936095413563182  1.1173867074370478 
C  3.271197954489751  3.457931149579931  0.9592683490194782 
H  3.8975171508116047  2.706952991421332  1.0204847707336835 
H  3.464933106151748  4.1047415179326805  1.6699042110486229 
H  3.367333406468946  3.892820816320601  0.08541576841164852 
C  0.8493654192101224  4.090150121399107  0.8663554719081321 
H  1.030551644115685  4.485321487012685  -0.011319749175153266 
H  0.963570271335074  4.7706369386354766  1.5618068600860873 
H  -0.07002603336620594  3.7509602390598458  0.8893741740494548 
C  1.672714613244443  2.484797544960155  2.582586027516544 
H  0.7507058609805188  2.1926098055604135  2.7410167243313115 
H  1.8855859147868936  3.2321728909682563  3.178689610091684 
H  2.285989900413109  1.7403098493972744  2.760492810140712 
N  1.3877186728584436  -1.4677659503476705  2.4498622828363515e-16 
P  1.3877186728584434  1.4677659503476705  -2.907717897615904e-16 
Br  -1.5839191898578664  1.5839191898578664  0.0 
C  -1.2937473829822488  -1.2398794889499034  -0.4598005675376139 
C  -1.601562203225019  -1.4938654694550033  -1.7919791134336869 
H  -1.1309417375171225  -1.0428217585005106  -2.480879663633267 
C  -2.60218398542082  -2.411889969420291  -2.121542410022959 
H  -2.8231586547736818  -2.5626138747145775  -3.03270050271447 
C  -3.2683208079706407  -3.09759503004543  -1.143064365570095 
H  -3.9596020908062854  -3.707191723557817  -1.3683280760515548 
C  -2.9347449854640226  -2.896087320001541  0.14198826503765638 
H  -3.3668350933519986  -3.405606940434718  0.8171022443470677 
C  -1.9675509241539992  -1.9516175659140573  0.5112421903797603 
H  -1.7755298364628027  -1.8022912010877177  1.4301324877763764 

-Ni 0
lanl2dz
F 1 1.0
3.130 1.0
****
-H 0
6-31g(d,p)
****
-P 0
6-31+g(d)
****
-N 0
6-31+g(d)
****
-C 0
6-31g(d)
****
-Br 0
6-31+g(d)
****

-Ni 0
lanl2dz


