%chk=AZAFIHUW_PN_Pd_gaussain.chk
%nprocshared=32
%mem=64GB
#p opt rwb97xd/gen pseudo=read

This Gaussian input file was generated using the DART python program. This file was generated on the 2023-10-04 at 16:41:16

0 1
Pd  0.0  0.0  0.0 
P  1.523495315056794  -1.4734524169446392  1.8044587861071838e-16 
N  1.523495315056794  1.4734524169446392  -1.8044587861071838e-16 
C  2.1248726587887345  -2.741669112312963  -1.1299236407983535 
C  2.041570211176078  -2.5167889898268303  -2.4810367384820355 
H  1.6674173227395832  -1.7362693057336247  -2.817976404917548 
C  2.547106943684681  -3.521051246947005  -3.3401458823097796 
H  2.4680312545928302  -3.416504749056406  -4.26087711083062 
C  3.130493630004853  -4.604332978100437  -2.857537754349207 
H  3.4938036604819365  -5.227417927734406  -3.4463418196326976 
C  3.2076686431453716  -4.823948831506145  -1.5546748589224968 
H  3.596679970587681  -5.606734411641602  -1.2379538102794105 
C  2.7080280199577818  -3.8807520549982173  -0.6543781809069641 
H  2.7727339831627136  -4.026486445556461  0.26080250930364435 
C  0.9439145932002497  -2.3164947647768135  1.4921154267059629 
C  0.09782311449008385  -3.3602067349189615  1.3952291891071515 
H  -0.12965247166285065  -3.680866940546594  0.5513921075379401 
C  -0.4429153462658011  -3.971383173088145  2.5129501464512662 
H  -1.0275103853649377  -4.688090735446895  2.4191798936071414 
C  -0.12080339097146142  -3.527582275631292  3.7195224450198148 
H  -0.4811966302690984  -3.9312755867688365  4.476140739545794 
C  0.7450959827187762  -2.472172398042807  3.85037184292264 
H  0.9790031115224416  -2.1616374667901264  4.696745472926993 
C  1.2682560733005426  -1.8738131705163408  2.7260191427184384 
H  1.8517891934478345  -1.1540914490650231  2.8173486634788665 
C  2.9426329118178534  -0.4803030636493159  0.4828473604653668 
C  4.147936254244325  -1.057904206524889  0.9013176252207771 
H  4.2135212316349175  -1.977493064242925  1.0242712892634356 
C  5.23936376171932  -0.2403252598643658  1.1274077663247049 
H  6.043496214085923  -0.609333124487135  1.4138292475329413 
C  5.142157251749036  1.0793486655631541  0.9340774920112299 
H  5.895371417244521  1.6098102474992382  1.0621018685451002 
C  3.955149883952153  1.6764098396350229  0.5519269808094248 
H  3.907949767996267  2.5987114283201627  0.4467234705893742 
C  2.8306045156396227  0.8835299057023519  0.3270681251381086 
C  0.8157773629496854  1.8920390797422966  1.2748043598895002 
H  0.8626216363808642  1.1697375464448114  1.9204604130964842 
H  -0.1195866205050291  2.062267410237087  1.0830405886690135 
C  1.445801632637936  3.1485001664456878  1.8740380515357011 
H  0.8688833365747287  3.4781950038313  2.5807248590175043 
H  2.2951560021767334  2.9078490087141917  2.2778159301123506 
C  1.6539091122255334  4.1352416881127745  0.9922873008369398 
H  2.60362044703645  4.333401589065294  0.9899433327985722 
H  1.1981830527006396  4.925290197051992  1.3221211411154048 
C  1.275128322492177  3.9472728356307143  -0.2813770834596457 
H  1.6627555704353902  4.657664612088962  -0.8146330263168041 
H  0.3114937554725694  4.050884043732411  -0.3231627125761523 
C  1.6188412092480697  2.658335769757786  -0.9259323035120633 
H  2.5240242063508855  2.7121749600076472  -1.2707104544283039 
H  1.0245579650684857  2.515921313351295  -1.6786036848557808 
Br  -1.654629867976521  1.654629867976521  0.0 
C  -1.352040782177733  -1.3199206589279684  -0.4819701001757076 
C  -1.6380700204479186  -1.599217458033982  -1.8139382277462257 
H  -1.1579680913617836  -1.159339363685303  -2.503515938957912 
C  -2.63068216563725  -2.52632649780156  -2.142289956238523 
H  -2.8368222554424674  -2.694399528648736  -3.0538898079700485 
C  -3.3101544432602585  -3.1961573187854975  -1.1619874135498987 
H  -3.9960123560788676  -3.811990145619169  -1.3868663427944008 
C  -2.9974710358883443  -2.9701089012107795  0.12423560353005347 
H  -3.438659168087169  -3.468581175155742  0.8017084178296768 
C  -2.0389854250767776  -2.015940632791841  0.4912562833419403 
H  -1.8619130127668426  -1.8492165108145995  1.4101568590026907 

-Pd 0
lanl2dz
F 1 1.0
1.472 1.0
****
-H 0
6-31g(d,p)
****
-P 0
6-31+g(d)
****
-N 0
6-31+g(d)
****
-C 0
6-31g(d)
****
-Br 0
6-31+g(d)
****

-Pd 0
lanl2dz


