%chk=JEFANEGE_PN_Pd_gaussain.chk
%nprocshared=32
%mem=64GB
#p opt rwb97xd/gen pseudo=read

This Gaussian input file was generated using the DART python program. This file was generated on the 2023-08-13 at 16:51:13

0 1
Pd  0.0  0.0  0.0 
P  1.5492020099070374  -1.4464000596308062  2.3637670862827698e-15 
N  1.549202009907036  1.4464000596308066  4.49116845936905e-17 
N  1.5405300710646057  -2.400391976191018  1.3420021127459245 
N  1.7264615793802716  -2.7009041907099727  -1.0981765842229094 
C  1.3773995804441495  2.740755585637813  0.10011387279379526 
C  2.4306322465769177  3.6589163608378485  0.19473010752626974 
C  3.697070093929667  3.2123206242717974  0.17929097304391456 
C  3.955822871960769  1.8197311283102637  0.10107239725286044 
C  5.252782347430742  1.2612378541837455  0.11306538454369759 
C  5.428706218563703  -0.09331240800311534  0.06803052276860867 
C  4.332701966262772  -0.9544149824304937  0.020687357972903782 
C  3.0456193500864197  -0.4389187267193879  -0.01595768922941127 
C  2.8454863229349394  0.9493915624218855  0.020691628740518435 
C  0.5959154624428451  -2.2874634410237196  2.445501545062647 
C  -0.1418684180587788  -3.616830988540824  2.456974961307172 
C  0.9375483923403822  -4.5931157623125  2.0186563101761785 
C  1.764428279117488  -3.8425890579115833  0.9839109652605422 
C  1.3162007907806734  -3.977910875479788  -0.45856423882074565 
C  1.5608797590035834  -2.524437293947573  -2.5022616333234926 
C  0.8389773961671134  -3.4269723887907033  -3.253050412613399 
C  0.694994041811956  -3.2300864663214477  -4.635650125907955 
C  1.26550978475041  -2.145562817725637  -5.2427028276528596 
C  1.9767521394697225  -1.2538900495917646  -4.499441603437694 
C  2.1419756547107216  -1.4380971527551916  -3.1401724089233785 
H  0.4673173292746027  3.045825892474381  0.11944296984553644 
H  2.2578134806516013  4.600595729509656  0.26558983347776394 
H  4.427278850388365  3.8342891308477918  0.2195621639708529 
H  6.014425349248487  1.8444920751600176  0.15140207056966615 
H  6.320384234628518  -0.44850809648444523  0.07522764378836727 
H  4.467975273425919  -1.904864908677661  0.01101264526939728 
H  -0.032144824645858217  -1.5741162635745132  2.309907407256807 
H  1.0423793231973497  -2.1651271213991428  3.2865494663732657 
H  -0.8724384929900226  -3.641593276651584  1.8346479293517128 
H  -0.45606308365605863  -3.8655036483662166  3.329318145131993 
H  0.5573256702279581  -5.375065896004205  1.6117028115931848 
H  1.49845354959366  -4.854866138689444  2.752471542392858 
H  2.69675666293985  -4.055463986911927  1.0682529436716788 
H  1.7569923849111637  -4.7320715744764605  -0.8568864082172739 
H  0.3656212474148084  -4.1078046028403605  -0.4934143654595932 
H  0.43422979855662835  -4.189804281428783  -2.833673618068508 
H  0.19297738284942034  -3.8660216309222997  -5.150768617663172 
H  1.1680444088101962  -2.006478358581361  -6.187588526410872 
H  2.3692326968210304  -0.49255232862881  -4.932950884468876 
H  2.6576470113581925  -0.8085053403541046  -2.630805535549319 
Br  -1.654629867976521  1.654629867976521  0.0 
C  -1.352040782177733  -1.3199206589279684  -0.4819701001757076 
C  -1.6380700204479186  -1.599217458033982  -1.8139382277462257 
H  -1.1579680913617836  -1.159339363685303  -2.503515938957912 
C  -2.63068216563725  -2.52632649780156  -2.142289956238523 
H  -2.8368222554424674  -2.694399528648736  -3.0538898079700485 
C  -3.3101544432602585  -3.1961573187854975  -1.1619874135498987 
H  -3.9960123560788676  -3.811990145619169  -1.3868663427944008 
C  -2.9974710358883443  -2.9701089012107795  0.12423560353005347 
H  -3.438659168087169  -3.468581175155742  0.8017084178296768 
C  -2.0389854250767776  -2.015940632791841  0.4912562833419403 
H  -1.8619130127668426  -1.8492165108145995  1.4101568590026907 

-Pd 0
lanl2dz
F 1 1.0
1.472 1.0
****
-C 0
6-31g(d)
****
-N 0
6-31+g(d)
****
-H 0
6-31g(d,p)
****
-Br 0
6-31+g(d)
****
-P 0
6-31+g(d)
****

-Pd 0
lanl2dz


