%chk=OTAJIMAL_PN_Ni_gaussain.chk
%nprocshared=32
%mem=64GB
#p opt rwb97xd/gen pseudo=read

This Gaussian input file was generated using the DART python program. This file was generated on the 2023-10-04 at 09:55:46

0 1
Ni  0.0  0.0  0.0 
P  1.4011606073180904  -1.454939501319556  -2.147829796717505e-15 
N  1.40116060731809  1.454939501319556  -6.222679101744667e-16 
C  2.5640103455104626  -1.2356400564212462  1.3668318806105224 
C  1.1315155302984197  -3.226492894201071  -0.16801698904887752 
C  2.3163769108902277  -0.9900462432929868  -1.5272156744603114 
C  3.9158799101541404  -1.4123452732133044  1.1997325492275501 
H  4.25641000906713  -1.6327492279544908  0.36286699343690537 
C  2.0767539043388314  -0.9340650083851921  2.62791031232636 
H  1.1621948155366468  -0.8213899522393385  2.752559599576128 
C  0.28550657526960777  -3.6850997636927865  -1.184979115809808 
H  -0.15798456877389744  -3.0759239669011276  -1.7299153540599594 
C  1.7705373948783165  -4.146740226674812  0.6327718181055533 
H  2.3264291104962425  -3.8519184456928786  1.3176070230753463 
C  2.7300468022997766  -1.9719779000417967  -2.417998758278014 
H  2.572935278932982  -2.869210021250997  -2.2249119904874375 
C  2.5977984942152936  0.34157867873493575  -1.8145951439304502 
C  4.770702629685795  -1.2599202068797093  2.2773514230998146 
H  5.686800467800735  -1.3714950145282556  2.1542126668151655 
C  2.94233338261014  -0.7982843523367236  3.711964692991223 
H  2.611160128907777  -0.6060630436525111  4.559422600217257 
C  3.379879892843494  -1.6217404025115973  -3.597986817437167 
H  3.643706625529987  -2.2821620208184306  -4.197269673184751 
C  2.3400011256097315  1.4351734629558188  -0.8787986998973807 
H  2.8996876340844624  2.1776117114330313  -0.9227526465854805 
C  3.2592095732292896  0.6649857307623536  -2.973018245934424 
H  3.461738236658127  1.5547438779746008  -3.152204182768646 
C  3.6268903787041533  -0.31693811466510075  -3.875964549468779 
H  4.044445595108385  -0.08115129693909452  -4.673662128655444 
C  4.300693536658549  -0.955373471707468  3.5063292620243582 
H  4.89072977703168  -0.84940718592021  4.2164192361282335 
C  0.10891215610648586  -5.023285776399285  -1.3764470935949236 
H  -0.4647220179632683  -5.328636538129979  -2.0420137819514057 
C  1.5929151139354936  -5.500766636854264  0.4285996950103121 
H  2.022828154261195  -6.120340298977285  0.9732205034278633 
C  0.7789580557989861  -5.922938764590793  -0.580714196736062 
H  0.674796193619434  -6.83363491642273  -0.7341032625321267 
C  1.3922092597074551  2.5154624293179912  1.0299524855863977 
H  1.6185533441654782  2.104534308624481  1.878260976086275 
H  0.48364019476719367  2.847317427111438  1.1057583209363429 
C  2.283050762244092  3.681379162255344  0.8411514018634024 
H  2.1797893509171558  4.286432131263058  1.5790805350636854 
H  2.054252048305025  4.131699924325367  0.02337215307523933 
H  3.1954452800905475  3.3845082926361885  0.7961839628068293 
Br  -1.5839191898578664  1.5839191898578664  0.0 
C  -1.2937473829822488  -1.2398794889499034  -0.4598005675376139 
C  -1.601562203225019  -1.4938654694550033  -1.7919791134336869 
H  -1.1309417375171225  -1.0428217585005106  -2.480879663633267 
C  -2.60218398542082  -2.411889969420291  -2.121542410022959 
H  -2.8231586547736818  -2.5626138747145775  -3.03270050271447 
C  -3.2683208079706407  -3.09759503004543  -1.143064365570095 
H  -3.9596020908062854  -3.707191723557817  -1.3683280760515548 
C  -2.9347449854640226  -2.896087320001541  0.14198826503765638 
H  -3.3668350933519986  -3.405606940434718  0.8171022443470677 
C  -1.9675509241539992  -1.9516175659140573  0.5112421903797603 
H  -1.7755298364628027  -1.8022912010877177  1.4301324877763764 

-Ni 0
lanl2dz
F 1 1.0
3.130 1.0
****
-P 0
6-31+g(d)
****
-N 0
6-31+g(d)
****
-C 0
6-31g(d)
****
-H 0
6-31g(d,p)
****
-Br 0
6-31+g(d)
****

-Ni 0
lanl2dz


