%chk=UYUKEQIP_PN_Pd_gaussain.chk
%nprocshared=32
%mem=64GB
#p opt rwb97xd/gen pseudo=read

This Gaussian input file was generated using the DART python program. This file was generated on the 2023-08-13 at 16:51:13

0 1
Pd  0.0  0.0  0.0 
C  1.3638405428181932  2.791253288052885  0.25386065673393476 
H  0.4807126643665558  3.14138329677687  0.26229969059326597 
C  2.410237101963261  3.6530661300120357  0.5017143160647454 
H  2.247934390903452  4.572094763072015  0.6818270907325761 
C  3.7000057732859517  3.154542881242927  0.48425021255944006 
H  4.438317468979685  3.713529152048335  0.6947593312524148 
C  3.8931211006941244  1.8237964263756903  0.15336722239777545 
H  4.77443166273446  1.4735455571017246  0.08448099874612436 
C  2.7964345223728095  1.0012543516572896  -0.07736741793146684 
C  2.982886729365519  -0.43469041835237476  -0.48170554622194345 
H  3.7977166491395584  -0.7951190990113656  -0.049907841272653575 
H  3.1097557637679865  -0.48487757522336683  -1.4627229555450456 
C  1.9783330678549256  -2.0251084100267693  1.7583282934564046 
C  2.2938406185189955  -0.7353986476824351  2.5438890131895864 
H  1.5533706190555885  -0.10062717762666162  2.442320510700323 
H  3.1175869307160533  -0.3335685501384118  2.1966676920563204 
H  2.410690645941208  -0.9505761491942997  3.4932971361454457 
C  3.2154606298072737  -2.9298182990151735  1.8601717626848662 
H  3.479597392804384  -3.017558115414031  2.79952832174628 
H  3.9527181609549267  -2.5347498687503576  1.3479610461099654 
H  3.003460359025471  -3.8150015155165837  1.4961997604475195 
C  0.786017539502107  -2.7162549070276762  2.441870523704234 
H  1.0002144684987622  -2.88302467024641  3.3844177700979574 
H  0.6007814963841075  -3.5682871671463783  1.9935998844169736 
H  -0.004294819257794069  -2.138844022956377  2.3858303903410003 
C  1.7030462229329775  -2.936095413563182  -1.18696618458833 
C  3.148391933681026  -3.4579311495799314  -1.3583730136183174 
H  3.744887910969606  -2.706952991421332  -1.5589116259783005 
H  3.1773033795390813  -4.1047415179326805  -2.094376251172199 
H  3.4386374996029927  -3.892820816320601  -0.5285429893212713 
C  0.8095316590499486  -4.090150121399107  -0.7230477052725287 
H  1.1835080591035418  -4.485321487012686  0.09137472442969495 
H  0.7643669251981859  -4.770636938635477  -1.4263652213231581 
H  -0.09147393147615857  -3.7509602390598458  -0.5386583629574604 
C  1.2257105936007666  -2.4847975449601547  -2.580504652218278 
H  0.29169371363591057  -2.192609805560413  -2.527467939601605 
H  1.2990318880771774  -3.2321728909682563  -3.2092157623122413 
H  1.783247356564252  -1.740309849397274  -2.8918086179811446 
N  1.5289745305269147  1.467765950347671  -8.646802187277018e-17 
P  1.5289745305269147  -1.4677659503476705  1.1102230246251565e-16 
Br  -1.654629867976521  1.654629867976521  0.0 
C  -1.352040782177733  -1.3199206589279684  -0.4819701001757076 
C  -1.6380700204479186  -1.599217458033982  -1.8139382277462257 
H  -1.1579680913617836  -1.159339363685303  -2.503515938957912 
C  -2.63068216563725  -2.52632649780156  -2.142289956238523 
H  -2.8368222554424674  -2.694399528648736  -3.0538898079700485 
C  -3.3101544432602585  -3.1961573187854975  -1.1619874135498987 
H  -3.9960123560788676  -3.811990145619169  -1.3868663427944008 
C  -2.9974710358883443  -2.9701089012107795  0.12423560353005347 
H  -3.438659168087169  -3.468581175155742  0.8017084178296768 
C  -2.0389854250767776  -2.015940632791841  0.4912562833419403 
H  -1.8619130127668426  -1.8492165108145995  1.4101568590026907 

-Pd 0
lanl2dz
F 1 1.0
1.472 1.0
****
-C 0
6-31g(d)
****
-N 0
6-31+g(d)
****
-H 0
6-31g(d,p)
****
-Br 0
6-31+g(d)
****
-P 0
6-31+g(d)
****

-Pd 0
lanl2dz


