%chk=EBAYUDOF_PN_Ni_gaussain.chk
%nprocshared=32
%mem=64GB
#p opt rwb97xd/gen pseudo=read

This Gaussian input file was generated using the DART python program. This file was generated on the 2023-10-04 at 16:41:16

0 1
Ni  0.0  0.0  0.0 
P  1.3436185312431483  1.508240445850727  -2.0735461209416024e-15 
N  1.3436185312431501  -1.5082404458507275  0.0 
H  1.180333367048948  -2.310127869256756  0.42088466987681755 
H  0.9511866311108259  -1.5719537949154365  -0.8295381503641128 
C  1.6144293275537855  3.031314725100864  0.924857574163882 
H  1.963119368093108  2.815683652552244  1.8140366822069316 
H  0.7652065706885488  3.5139221349488547  1.0145197020777332 
H  2.2602341613561885  3.5928733925733205  0.44737858025522115 
C  0.7040175568311713  2.0601112614689283  -1.5974992007510433 
H  0.5299648588583137  1.2818319968932477  -2.167366470086548 
H  1.3646533011777797  2.640100723630969  -2.0308720737744954 
H  -0.12863443949638964  2.5592995156171767  -1.4613962987534774 
C  3.0558292340758944  1.0154243852253624  -0.3636835843074958 
H  3.4764410607500755  1.726323103629124  -0.9095779911607944 
H  3.554963424772188  0.9630161666170778  0.4895261251428231 
C  3.213567689357304  -0.3035659624163891  -1.091443903748819 
H  2.6678683156412184  -0.28464099585782443  -1.916707673198717 
H  4.161360258696705  -0.41453281485721316  -1.3578903583404078 
C  2.7967852805753872  -1.4868817559358514  -0.2537934297816857 
H  3.057538430657539  -2.3211825953422878  -0.7181992481000601 
H  3.2770343371194395  -1.457164246288562  0.6116218712784023 
Br  -1.5839191898578664  1.5839191898578664  0.0 
C  -1.2937473829822488  -1.2398794889499034  -0.4598005675376139 
C  -1.601562203225019  -1.4938654694550033  -1.7919791134336869 
H  -1.1309417375171225  -1.0428217585005106  -2.480879663633267 
C  -2.60218398542082  -2.411889969420291  -2.121542410022959 
H  -2.8231586547736818  -2.5626138747145775  -3.03270050271447 
C  -3.2683208079706407  -3.09759503004543  -1.143064365570095 
H  -3.9596020908062854  -3.707191723557817  -1.3683280760515548 
C  -2.9347449854640226  -2.896087320001541  0.14198826503765638 
H  -3.3668350933519986  -3.405606940434718  0.8171022443470677 
C  -1.9675509241539992  -1.9516175659140573  0.5112421903797603 
H  -1.7755298364628027  -1.8022912010877177  1.4301324877763764 

-Ni 0
lanl2dz
F 1 1.0
3.130 1.0
****
-H 0
6-31g(d,p)
****
-P 0
6-31+g(d)
****
-N 0
6-31+g(d)
****
-C 0
6-31g(d)
****
-Br 0
6-31+g(d)
****

-Ni 0
lanl2dz


