%chk=AQAMUJUQ_PN_Ni_gaussain.chk
%nprocshared=32
%mem=64GB
#p opt rwb97xd/gen pseudo=read

This Gaussian input file was generated using the DART python program. This file was generated on the 2023-10-04 at 16:41:16

0 1
Ni  0.0  0.0  0.0 
P  1.462050212886002  -1.3937392779856643  -1.8137473514214777e-15 
C  4.080408950615414  -1.0763382102340586  0.977437308857421 
C  2.7847579707224916  -0.5132406155861787  0.48031646117109833 
C  2.6032659431280645  0.9440750044023191  0.38542248002791135 
C  3.7511162671140212  1.7990228406447994  0.768416985249204 
C  4.67468670276264  2.25419833151342  -0.18855665227087753 
C  5.821360486840726  2.96547297997762  0.20495835044207253 
C  6.029949599690573  3.267914671661316  1.4992170475857673 
C  5.126938244624639  2.8375798131454277  2.482727587523248 
C  4.0223676597431615  2.1006119625410444  2.093382714447763 
N  1.4620502128860002  1.3937392779856643  -1.7068383456310868e-16 
C  1.655696836201775  -3.1677228085161375  0.2244175320358025 
C  2.2304069859750686  -3.9530114290548615  -0.8278939219548807 
C  2.4607796673537483  -5.307906788486228  -0.5654218040723344 
C  2.0972917862677334  -5.931711282434733  0.6439764982389012 
C  1.5571955751946402  -5.152284009229065  1.610308769545046 
C  1.3031185214865806  -3.7797270107890193  1.451383545580172 
C  2.6066430598078565  -3.421148596666762  -2.238812432809097 
C  1.4679376572916458  -2.6253312135167066  -2.883795431776252 
C  3.879645519266764  -2.5269490755043686  -2.1869428409022733 
C  2.9161297204446974  -4.54986175690259  -3.241137125111118 
C  2.355376108927252  -7.425940485051367  0.8529127862432623 
C  2.9820382994850014  -8.10674138876943  -0.25587726981878123 
C  3.1245209169175716  -7.633610068288135  2.090050910520376 
C  0.9697011732523962  -8.048640267362392  1.2254878843809829 
C  0.7024466515142912  -3.040549783546811  2.691445068792054 
C  0.39207879747211805  -4.042206038092259  3.8508581758886047 
C  -0.6615563959469044  -2.41941377649449  2.278080221157761 
C  1.6209000540955838  -2.0169256003624754  3.272493310237692 
C  0.6528034288378313  3.4724590792868364  1.0041957827964347 
C  0.23112887820392625  4.76191292720981  0.8118938394252365 
C  0.30843477464514035  5.394944638330946  -0.4400633647516897 
C  0.8669506569313478  4.735515059559001  -1.5154814694322523 
C  1.3150149109432943  3.4234831904113703  -1.3832933889647088 
C  1.1945883523124494  2.806525690840318  -0.12744282950334695 
C  0.5156325399545175  2.8023117068529477  2.3397613021413255 
C  0.9883058210280398  3.664509360302707  3.4779588402448574 
C  -0.9397283708054129  2.3322541068785445  2.573151023719732 
C  1.9148544458340713  2.681342403150986  -2.5638314333608303 
C  2.8572788822255086  3.5657629647796436  -3.4024570422357105 
C  0.8320108721352124  2.1036132376475627  -3.4613583389329476 
H  4.024082162184535  -2.033017537609459  0.9885119410235859 
H  4.792683917432435  -0.79259666958411  0.39977276108298787 
H  4.2495641477807276  -0.7651779115684565  1.8660378590521216 
H  4.514992604543725  2.068930617473538  -1.122153143871245 
H  6.465990721444481  3.2443969876025225  -0.4520510243808337 
H  6.808420938914335  3.7842114255563466  1.7473491412871447 
H  5.273005806958771  3.0527588783673267  3.4056503454634894 
H  3.4261682425275666  1.756203182088393  2.7691407013475993 
H  2.878344682835425  -5.835924712371968  -1.2607393429717852 
H  1.323079275077922  -5.580562328157336  2.4471181980027303 
H  1.2409726744599923  -1.897354571094467  -2.308800619055405 
H  1.7380211164487018  -2.276210784261641  -3.7402978024481133 
H  0.7112942814972771  -3.1982793521055184  -2.9880021607054603 
H  3.637307821883722  -5.086804194286993  -2.8789267650432118 
H  2.142091483104358  -5.10583926807665  -3.3447062044919105 
H  3.1688167931845794  -4.183863364622764  -4.097039409322759 
H  3.7200276366312366  -1.7852404565910451  -1.591320354613636 
H  4.602697267087048  -3.067539698801526  -1.8522808054437525 
H  4.090409552048122  -2.1882661077098318  -3.0621434749351915 
H  2.443766100821229  -7.9668561691451565  -1.0431283768210853 
H  3.8636379389818876  -7.761575956756003  -0.4081243393537483 
H  3.0348879088137064  -9.048527066143086  -0.06687772831762395 
H  4.011680660656517  -7.286781699715048  1.959565272069233 
H  2.7050024636847603  -7.165068637825042  2.8070474902449667 
H  3.171106282339392  -8.576257825836311  2.307254637279186 
H  0.5989162845111232  -7.573797966902516  1.9718170181920072 
H  0.37371415339317937  -7.976427912735019  0.4720165458427988 
H  1.068917745731611  -8.977781485131331  1.4543564912023048 
H  -1.217326144161796  -3.105412409884397  1.9180225563922872 
H  -1.0942561493727665  -2.0449929122463293  3.0504962229345636 
H  -0.529159220797516  -1.7447349431914427  1.6090566566211149 
H  1.8329591472093643  -1.3602568930539245  2.598076769908586 
H  1.202176420451908  -1.586085220468858  4.0148427802862585 
H  2.4241657283107756  -2.4420027000451703  3.57424255373799 
H  1.2071409435798661  -4.45081129446637  4.147966123351645 
H  -0.022220531590465997  -3.569169075287528  4.577584140581482 
H  -0.1983522737268435  -4.728540928777491  3.5348334490222437 
H  -0.1364893408650345  5.241244901670297  1.5627257535501 
H  -0.019022270891018822  6.286582306601341  -0.5514421412311727 
H  0.9528512920369174  5.167915630827251  -2.366825810375095 
H  1.0685877943160405  2.0139915114230393  2.333266215434761 
H  1.8939684342834475  3.9223169256597745  3.3264643842536645 
H  0.4288355555901473  4.437691078735329  3.5220635154213493 
H  0.9337272242450949  3.180365589184174  4.309522858021201 
H  -1.2157906705925938  1.7622618080691443  1.847943028773306 
H  -1.0088541945106535  1.8276996101319627  3.3984197680145094 
H  -1.5056750157282714  3.101434682423052  2.6223308702584034 
H  2.4337234967371844  1.939600951698088  -2.230477301525824 
H  3.5511514253717094  3.896207540945729  -2.827917256015238 
H  3.251047526426583  3.0736601727917043  -4.122846198846014 
H  2.3554486819741163  4.29476194690523  -3.762571724212882 
H  0.26052022648431206  1.5278014357731986  -2.9510515481142 
H  0.32429022567020893  2.8292486530903083  -3.818260691136453 
H  1.2198890701226983  1.6081468789767817  -4.178535165769629 
Br  -1.5839191898578664  1.5839191898578664  0.0 
C  -1.2937473829822488  -1.2398794889499034  -0.4598005675376139 
C  -1.601562203225019  -1.4938654694550033  -1.7919791134336869 
H  -1.1309417375171225  -1.0428217585005106  -2.480879663633267 
C  -2.60218398542082  -2.411889969420291  -2.121542410022959 
H  -2.8231586547736818  -2.5626138747145775  -3.03270050271447 
C  -3.2683208079706407  -3.09759503004543  -1.143064365570095 
H  -3.9596020908062854  -3.707191723557817  -1.3683280760515548 
C  -2.9347449854640226  -2.896087320001541  0.14198826503765638 
H  -3.3668350933519986  -3.405606940434718  0.8171022443470677 
C  -1.9675509241539992  -1.9516175659140573  0.5112421903797603 
H  -1.7755298364628027  -1.8022912010877177  1.4301324877763764 

-Ni 0
lanl2dz
F 1 1.0
3.130 1.0
****
-H 0
6-31g(d,p)
****
-P 0
6-31+g(d)
****
-N 0
6-31+g(d)
****
-C 0
6-31g(d)
****
-Br 0
6-31+g(d)
****

-Ni 0
lanl2dz


