%chk=RIJOLUGU_PN_Pd_gaussain.chk
%nprocshared=32
%mem=64GB
#p opt rwb97xd/gen pseudo=read

This Gaussian input file was generated using the DART python program. This file was generated on the 2023-08-13 at 16:51:13

0 1
Pd  0.0  0.0  0.0 
P  1.5411849491543839  1.454939501319557  4.2821528333561415e-15 
N  1.5411849491543832  -1.454939501319557  -2.220446049250313e-16 
C  2.7040346873467564  1.2356400564212482  -1.3668318806105226 
C  1.2715398721347158  3.2264928942010718  0.1680169890488789 
C  2.4564012527265233  0.9900462432929871  1.5272156744603118 
C  4.055904251990454  1.4123452732133064  -1.199732549227555 
H  4.3964343509034425  1.6327492279544922  -0.3628669934369066 
C  2.216778246175126  0.9340650083851938  -2.6279103123263745 
H  1.3022191573729425  0.8213899522393397  -2.7525595995761556 
C  0.4255309171059003  3.6850997636927874  1.1849791158098102 
H  -0.017960226937610013  3.0759239669011285  1.7299153540599657 
C  1.9105617367146088  4.146740226674814  -0.6327718181055493 
H  2.466453452332538  3.8519184456928803  -1.317607023075348 
C  2.8700711441360687  1.9719779000417974  2.4179987582780162 
H  2.7129596207692823  2.8692100212509972  2.224911990487458 
C  2.737822836051593  -0.34157867873493597  1.8145951439304628 
C  4.9107269715221  1.2599202068797113  -2.2773514230998195 
H  5.826824809637042  1.3714950145282576  -2.1542126668151615 
C  3.0823577244464375  0.7982843523367262  -3.7119646929912307 
H  2.7511844707440725  0.6060630436525134  -4.559422600217274 
C  3.51990423467979  1.6217404025115965  3.5979868174371763 
H  3.7837309673662833  2.282162020818431  4.197269673184742 
C  2.4800254674460254  -1.4351734629558193  0.8787986998973812 
H  3.0397119759207554  -2.1776117114330322  0.9227526465854786 
C  3.3992339150655946  -0.6649857307623543  2.9730182459344494 
H  3.6017625784944283  -1.5547438779746021  3.1522041827686618 
C  3.7669147205404556  0.31693811466509914  3.8759645494687884 
H  4.184469936944678  0.08115129693909306  4.673662128655438 
C  4.440717878494846  0.9553734717074702  -3.5063292620243693 
H  5.030754118867973  0.8494071859202124  -4.216419236128241 
C  0.2489364979427795  5.0232857763992875  1.376447093594926 
H  -0.3246976761269844  5.328636538129981  2.0420137819514226 
C  1.7329394557717879  5.500766636854268  -0.428599695010312 
H  2.16285249609749  6.120340298977288  -0.9732205034278644 
C  0.9189823976352813  5.922938764590796  0.5807141967360638 
H  0.8148205354557276  6.833634916422732  0.7341032625321268 
C  1.5322336015437477  -2.515462429317992  -1.0299524855863997 
H  1.758577686001774  -2.10453430862448  -1.8782609760862714 
H  0.6236645366034849  -2.847317427111439  -1.1057583209363457 
C  2.423075104080389  -3.6813791622553467  -0.8411514018634062 
H  2.3198136927534496  -4.28643213126306  -1.5790805350636878 
H  2.194276390141316  -4.131699924325369  -0.0233721530752413 
H  3.3354696219268423  -3.3845082926361894  -0.7961839628068311 
Br  -1.654629867976521  1.654629867976521  0.0 
C  -1.352040782177733  -1.3199206589279684  -0.4819701001757076 
C  -1.6380700204479186  -1.599217458033982  -1.8139382277462257 
H  -1.1579680913617836  -1.159339363685303  -2.503515938957912 
C  -2.63068216563725  -2.52632649780156  -2.142289956238523 
H  -2.8368222554424674  -2.694399528648736  -3.0538898079700485 
C  -3.3101544432602585  -3.1961573187854975  -1.1619874135498987 
H  -3.9960123560788676  -3.811990145619169  -1.3868663427944008 
C  -2.9974710358883443  -2.9701089012107795  0.12423560353005347 
H  -3.438659168087169  -3.468581175155742  0.8017084178296768 
C  -2.0389854250767776  -2.015940632791841  0.4912562833419403 
H  -1.8619130127668426  -1.8492165108145995  1.4101568590026907 

-Pd 0
lanl2dz
F 1 1.0
1.472 1.0
****
-C 0
6-31g(d)
****
-N 0
6-31+g(d)
****
-H 0
6-31g(d,p)
****
-Br 0
6-31+g(d)
****
-P 0
6-31+g(d)
****

-Pd 0
lanl2dz


