%chk=OGIRAQEC_PN_Pd_gaussain.chk
%nprocshared=32
%mem=64GB
#p opt rwb97xd/gen pseudo=read

This Gaussian input file was generated using the DART python program. This file was generated on the 2023-08-13 at 16:51:13

0 1
Pd  0.0  0.0  0.0 
P  1.5055490086676027  -1.49178489820081  1.2627493679597028e-15 
N  1.5055490086676022  1.49178489820081  -7.166865759728256e-17 
N  1.428483993311091  2.6182023475439697  -0.7502477478962309 
C  2.3458348703894676  1.4478675780301768  0.9815880600228492 
H  2.830933489580004  2.24486063073767  1.160545970145394 
C  2.6303196925998575  0.29671504117909153  1.8513981731126221 
C  2.4127114842894417  -1.0457595289920962  1.5134970838577637 
C  2.8525742013378492  -2.0568107849868933  2.3795640835189813 
H  2.725474223869032  -2.9677449529349302  2.1412516050537445 
C  3.4698081814498654  -1.7425472436644014  3.577516323965379 
H  3.773281979248468  -2.4352399946409578  4.151997495801519 
C  3.643105546503322  -0.4191107030605154  3.93699894699458 
H  4.025192098043864  -0.2002222759194295  4.779066143597987 
C  3.258284345370593  0.5855304464829212  3.0694547672533847 
H  3.4230605647497834  1.4908689786190734  3.304860416626257 
C  2.313735752362092  3.786376872639221  -0.5141656816234934 
H  3.2652659944148232  3.486856596264997  -0.44794232849336646 
C  2.1135102572241773  4.612499198643696  -1.7956389796573469 
H  2.0786862164683537  5.580541593188441  -1.5889091352963722 
H  2.8474405662067754  4.447241264810653  -2.438662996986395 
C  0.7788420173698813  4.127397991443656  -2.3572040856756766 
H  0.7044942098354245  4.320496326429767  -3.325831359987345 
H  0.016106418802309008  4.542725375939407  -1.8827976983180583 
C  0.841571265897583  2.6019882673309493  -2.0914059950851818 
H  -0.0799632898969096  2.2128591370521016  -2.0662768795991373 
C  1.9249849393498812  4.561726550327339  0.7403407881451222 
C  0.7117743134797058  4.393538026430495  1.3669633521381153 
H  0.09944001405426839  3.740563877024085  1.0499307261291508 
C  0.38353277888508375  5.186114812417534  2.470706086330049 
H  -0.4562047312790338  5.071534030559403  2.9020072438199906 
C  1.266946148224709  6.128814099490419  2.9357192936955347 
H  1.0405785576335793  6.662891794579644  3.6883626551477944 
C  2.4810830559166077  6.299985741131229  2.3130379237490803 
H  3.0919855445201763  6.95188564384032  2.639288787756902 
C  2.82107580663973  5.526426408688742  1.2100268863396917 
H  3.657782428317632  5.653256939168164  0.7771234262256743 
C  1.6850668210218362  1.9049026377243004  -3.150622070058372 
C  3.044861653733042  1.6762804647747451  -2.9878379953833667 
H  3.4618493236851737  1.8736595945374361  -2.1570576078909602 
C  3.805450029566403  1.155341644481506  -4.039036515197156 
H  4.7348321221732315  0.9998904294439446  -3.921151038207335 
C  3.2135287830019634  0.8705154336032102  -5.2375880023942365 
H  3.7353152202356936  0.5319883908579227  -5.954473603622943 
C  1.848865149318789  1.0751244026094866  -5.411080989874627 
H  1.4382529406612339  0.8664750186564781  -6.240819809430178 
C  1.0907383479752109  1.5836768493563222  -4.363858448104056 
H  0.15696484159490542  1.7138992830559097  -4.479869337867093 
C  0.9287195753306873  -3.1921314582573226  0.32625407359941583 
C  1.3961789911643454  -4.251442986283852  -0.42286614448214815 
H  2.009374098820262  -4.101767949172741  -1.1331279857862233 
C  0.9556603530670527  -5.559578054787083  -0.12575178595842845 
H  1.2765906655287764  -6.296669086695347  -0.6322689872691422 
C  0.06616811572000891  -5.764546720422977  0.8951459688666179 
H  -0.23112363728454666  -6.645382839346552  1.0913742675269784 
C  -0.4060595302043215  -4.6917433075916914  1.6502539266066754 
H  -1.0213265878067872  -4.8407128810657385  2.3584135442129033 
C  0.024157671324325003  -3.4029340581356786  1.3610694560251706 
H  -0.2965647230502737  -2.6672414617542226  1.8694335867190623 
C  2.6699558607459615  -1.6391081518850803  -1.3721441330111481 
C  4.044515864620886  -1.6783508906141056  -1.1628152453618041 
H  4.394511336402229  -1.5451185692253377  -0.290092965211953 
C  4.906683294193456  -1.9112665880575244  -2.227521782990208 
H  5.846139137388699  -1.9402723281291565  -2.0889580224709596 
C  4.378649993826633  -2.102374016041169  -3.4950276033607786 
H  4.960987677685001  -2.271167550084644  -4.2262496112513865 
C  3.01885310472284  -2.0515827591438875  -3.706321731548194 
H  2.670701960759461  -2.1845694854737157  -4.57993739737447 
C  2.1562426955481677  -1.8050866420136678  -2.649978564663845 
H  1.220630311214102  -1.7488277872007394  -2.8005283821193867 
Br  -1.654629867976521  1.654629867976521  0.0 
C  -1.352040782177733  -1.3199206589279684  -0.4819701001757076 
C  -1.6380700204479186  -1.599217458033982  -1.8139382277462257 
H  -1.1579680913617836  -1.159339363685303  -2.503515938957912 
C  -2.63068216563725  -2.52632649780156  -2.142289956238523 
H  -2.8368222554424674  -2.694399528648736  -3.0538898079700485 
C  -3.3101544432602585  -3.1961573187854975  -1.1619874135498987 
H  -3.9960123560788676  -3.811990145619169  -1.3868663427944008 
C  -2.9974710358883443  -2.9701089012107795  0.12423560353005347 
H  -3.438659168087169  -3.468581175155742  0.8017084178296768 
C  -2.0389854250767776  -2.015940632791841  0.4912562833419403 
H  -1.8619130127668426  -1.8492165108145995  1.4101568590026907 

-Pd 0
lanl2dz
F 1 1.0
1.472 1.0
****
-C 0
6-31g(d)
****
-N 0
6-31+g(d)
****
-H 0
6-31g(d,p)
****
-Br 0
6-31+g(d)
****
-P 0
6-31+g(d)
****

-Pd 0
lanl2dz


