%chk=YORUGALI_PN_Pd_gaussain.chk
%nprocshared=32
%mem=64GB
#p opt rwb97xd/gen pseudo=read

This Gaussian input file was generated using the DART python program. This file was generated on the 2023-08-13 at 16:51:13

0 1
Pd  0.0  0.0  0.0 
N  1.5353978857286492  -1.4610452876280045  -1.6930861061956626e-15 
P  1.5353978857286472  1.4610452876280045  -1.7892644349029598e-16 
C  2.775245609315002  1.0513278715636154  1.2700790689131634 
C  3.176344904198313  2.0335856989920247  2.1567110817007205 
H  2.9467770503699073  2.918746259004231  1.9903210775313214 
C  3.9194925396943594  1.7223680975594187  3.297352833704927 
C  4.169006156630616  0.38348267999934427  3.5099733491976566 
H  4.613503797931018  0.15600282512120964  4.294564078497338 
C  3.8125618637918723  -0.6661698482188411  2.650635018789927 
C  3.1402637889883334  -0.302909150898737  1.4547039737885936 
C  4.081597371742732  -2.106724845262765  3.2042585876103136 
C  3.7049901393586726  -3.2757251763701345  2.295331369189111 
H  2.780656702397667  -3.202663276164904  2.0466117759635756 
H  3.846873521930566  -4.101893331608954  2.7619225553673754 
H  4.250982506126822  -3.2562100181190923  1.505610447578594 
C  3.245311645509325  -2.2468892650340835  4.487979530622647 
H  2.314475234403537  -2.1507980136616305  4.275706340677664 
H  3.5031182612117573  -1.5663195295029502  5.113561982405887 
H  3.3969017122579257  -3.112313137043405  4.875565280385889 
C  5.5725872752376056  -2.2616733036829255  3.583893613536126 
H  5.7270227036059165  -3.1477324326930387  3.9203247927727443 
H  5.799020822320578  -1.6181055868145875  4.260696873398468 
H  6.11794666681431  -2.1148684531993234  2.807665786224068 
C  4.308160077070641  2.794581808705419  4.303894647550929 
C  5.771881867402624  2.642088931252104  4.702948482056338 
H  6.328789311588961  2.7816373057799115  3.9345101372449256 
H  5.918759819050346  1.7592370163096727  5.049156589416966 
H  5.988991981660497  3.2903732678298754  5.376988211771747 
C  3.4719513739710237  2.577451413989845  5.569773427905178 
H  2.5400863175043646  2.675003150549217  5.358458815938448 
H  3.719113190822024  3.2259707911942868  6.232086694933171 
H  3.631363231029768  1.6937729504043098  5.9115062662807425 
C  4.04527869270654  4.207334809915288  3.8040432443045975 
H  4.561024105819811  4.366536329518849  3.010020898895767 
H  4.2978028777503  4.839166398447841  4.481867240413029 
H  3.1122848809274357  4.307702800724164  3.60360496551806 
C  2.8488594998625136  -1.2537969206101742  0.3334867202233921 
C  3.871038802223583  -1.8200243893993795  -0.4269137778124602 
C  3.5079127092929037  -2.744431162712127  -1.418085694326643 
H  4.1687375629091905  -3.166910346093306  -1.9182755607299966 
C  2.1875430811348737  -3.031023579487788  -1.6565306810311933 
H  1.9530202503835445  -3.6774943412075873  -2.2836991162204874 
C  1.2269511204008614  -2.363452640202616  -0.9693940235931572 
H  0.3335147834024852  -2.5277770331786726  -1.1674747283677336 
C  5.325873698931824  -1.4727149361627747  -0.23435891027457872 
H  5.4103191282167415  -0.8301966528835137  0.47457242287749357 
H  5.676628678792299  -1.1003373277429305  -1.0466449380077973 
H  5.816593754578443  -2.2666879463240814  -0.00689413031608338 
C  1.0995318111990033  3.1934245584370538  0.3154089997847822 
C  1.5314209594603356  4.226856586715448  -0.5144258371210493 
H  2.0054020808851734  4.031448478960276  -1.2897627303206511 
C  1.2578357004631473  5.54599662728804  -0.18578976268979217 
H  1.543712738939502  6.233349845223123  -0.7425239206739087 
C  0.5649784493416936  5.834124023861379  0.9544928570638984 
H  0.3781662150289926  6.7201834745589855  1.167787720903955 
C  0.1387342095321218  4.827394696266093  1.796061439526849 
H  -0.31924655983878747  5.033426834728211  2.578849420277169 
C  0.39575945158841197  3.514638810982174  1.4676670263613152 
H  0.09424002019436006  2.8343771254504553  2.024476761988609 
C  2.336407181978509  1.4642325365376954  -1.6277344865689103 
C  1.53691370643394  1.4841307493078126  -2.75438909810265 
H  0.613996375920715  1.4098365806607716  -2.6695228648682625 
C  2.110210250835114  1.6139630218638281  -4.009653987749706 
H  1.5698452989047003  1.6384670261566197  -4.766912815693534 
C  3.454903753092334  1.7063113433994657  -4.135445134086914 
H  3.831109283406473  1.8232069396183033  -4.977945412155548 
C  4.275359909766131  1.628868583097562  -3.0302847322207755 
H  5.200492167252166  1.645134085064707  -3.1294550887019215 
C  3.7048939621633545  1.525836756312515  -1.7593925002455355 
H  4.247401962265844  1.4994410892332202  -1.0052140872793205 
Br  -1.654629867976521  1.654629867976521  0.0 
C  -1.352040782177733  -1.3199206589279684  -0.4819701001757076 
C  -1.6380700204479186  -1.599217458033982  -1.8139382277462257 
H  -1.1579680913617836  -1.159339363685303  -2.503515938957912 
C  -2.63068216563725  -2.52632649780156  -2.142289956238523 
H  -2.8368222554424674  -2.694399528648736  -3.0538898079700485 
C  -3.3101544432602585  -3.1961573187854975  -1.1619874135498987 
H  -3.9960123560788676  -3.811990145619169  -1.3868663427944008 
C  -2.9974710358883443  -2.9701089012107795  0.12423560353005347 
H  -3.438659168087169  -3.468581175155742  0.8017084178296768 
C  -2.0389854250767776  -2.015940632791841  0.4912562833419403 
H  -1.8619130127668426  -1.8492165108145995  1.4101568590026907 

-Pd 0
lanl2dz
F 1 1.0
1.472 1.0
****
-C 0
6-31g(d)
****
-N 0
6-31+g(d)
****
-H 0
6-31g(d,p)
****
-Br 0
6-31+g(d)
****
-P 0
6-31+g(d)
****

-Pd 0
lanl2dz


