%chk=ADONOCIZ_PN_Ni_gaussain.chk
%nprocshared=32
%mem=64GB
#p opt rwb97xd/gen pseudo=read

This Gaussian input file was generated using the DART python program. This file was generated on the 2023-10-04 at 09:55:46

0 1
Ni  0.0  0.0  0.0 
P  1.3908245171480125  1.464823252989929  1.3731690619576252e-15 
N  1.3908245171480123  -1.464823252989929  2.220446049250313e-16 
C  0.9680206920992527  -2.2719338600797587  -1.0091041985083888 
C  1.8324868222902235  -2.9143209215080277  -1.8660577287900697 
C  3.2253750961400796  -2.7065873062893373  -1.7244448350276174 
C  4.197744728871861  -3.259563420197033  -2.595546743410691 
C  5.509118324417887  -3.0078837897382082  -2.4336470321173227 
C  5.946257094596218  -2.1882534674113603  -1.3977955705991274 
C  5.057598050165476  -1.6256203454167664  -0.5229082162579192 
C  3.652131909457988  -1.871272443214583  -0.6670757027879883 
C  2.7018833293054274  -1.2812129099324872  0.20073697463784076 
C  3.10017914415484  -0.33522817957572104  1.2659802444148995 
C  2.745277754511558  1.0052667306409302  1.1491786634644656 
C  3.332234356812693  1.9504915263108815  2.021277764866272 
C  4.18092035915085  1.5607612610145494  3.026964763761759 
C  4.422217889953302  0.1828944870674043  3.2807426092903462 
C  5.1128704935141975  -0.25468880067168476  4.425088517434385 
C  5.20851915594443  -1.5892794900327853  4.70455288948559 
C  4.640252743225112  -2.516067682552919  3.851360624881436 
C  4.016966930997759  -2.1651448637413213  2.688331875660878 
C  3.8616246716800715  -0.7694822875041774  2.378246120165441 
C  1.137829193586909  3.218359684608591  0.3581670130571911 
C  1.506128754296607  4.223800632513944  -0.5174746681436591 
C  1.3292921896883494  5.568731552322017  -0.17131886454971812 
C  0.7883833086231616  5.886815992918486  1.0428357388823475 
C  0.435430794934175  4.897952430680949  1.9507673323185153 
C  0.5696196922971102  3.556657372734796  1.5883703161142553 
C  2.090236017763125  1.3286832855276787  -1.6683221697462276 
C  1.3301524493880557  0.7962936450654627  -2.6776817834690902 
C  1.8602435357453442  0.6539972386051329  -3.954355442973778 
C  3.1619074679051398  1.0233197960507154  -4.197242137290712 
C  3.9080897498600606  1.564418736405567  -3.1899591389017576 
C  3.4128671022060697  1.7169627136696546  -1.9085696258140685 
H  0.02780701520514839  -2.4308122466188613  -1.1160136932785674 
H  1.5169539319388488  -3.503746262236104  -2.555746834702359 
H  3.9119875995732696  -3.8302601771563833  -3.3100832677753775 
H  6.137784244864266  -3.3876681963991966  -3.0507190983514727 
H  6.889123251746858  -2.04244783211437  -1.2828862306147777 
H  5.371674071014609  -1.0462299628107679  0.1734334941625103 
H  3.16478111917319  2.8830065257907473  1.8627400755015144 
H  4.610109870555519  2.2288885234691467  3.56764957440946 
H  5.50301747196751  0.40241412491016026  5.006174251552463 
H  5.680707489232212  -1.8989289027343994  5.481030415960416 
H  4.697704418582907  -3.4519826963279123  4.063471779678011 
H  3.680612455159689  -2.852719752345935  2.1112842267235834 
H  1.8390509376049096  3.99825642482497  -1.3887668810316178 
H  1.6066232109199725  6.267020508284565  -0.769046334759487 
H  0.6685186971916789  6.806029616303844  1.2925880151665552 
H  0.0861153227006548  5.112356454756171  2.81924949409194 
H  0.2414521883739682  2.859373640437967  2.162144048558554 
H  0.4198003291887149  0.5271369128827645  -2.5309724423578004 
H  1.3455499864633715  0.2668820021132543  -4.6647037758382925 
H  3.529941957974429  0.8890850106602946  -5.0732993594575495 
H  4.789625147283688  1.8724841593696726  -3.4175563670552096 
H  3.983582236201581  2.064004535242578  -1.2186311793510063 
Br  -1.5839191898578664  1.5839191898578664  0.0 
C  -1.2937473829822488  -1.2398794889499034  -0.4598005675376139 
C  -1.601562203225019  -1.4938654694550033  -1.7919791134336869 
H  -1.1309417375171225  -1.0428217585005106  -2.480879663633267 
C  -2.60218398542082  -2.411889969420291  -2.121542410022959 
H  -2.8231586547736818  -2.5626138747145775  -3.03270050271447 
C  -3.2683208079706407  -3.09759503004543  -1.143064365570095 
H  -3.9596020908062854  -3.707191723557817  -1.3683280760515548 
C  -2.9347449854640226  -2.896087320001541  0.14198826503765638 
H  -3.3668350933519986  -3.405606940434718  0.8171022443470677 
C  -1.9675509241539992  -1.9516175659140573  0.5112421903797603 
H  -1.7755298364628027  -1.8022912010877177  1.4301324877763764 

-Ni 0
lanl2dz
F 1 1.0
3.130 1.0
****
-P 0
6-31+g(d)
****
-N 0
6-31+g(d)
****
-C 0
6-31g(d)
****
-H 0
6-31g(d,p)
****
-Br 0
6-31+g(d)
****

-Ni 0
lanl2dz


