%chk=OSOWITIS_PN_Ni_gaussain.chk
%nprocshared=32
%mem=64GB
#p opt rwb97xd/gen pseudo=read

This Gaussian input file was generated using the DART python program. This file was generated on the 2023-08-13 at 16:51:13

0 1
Ni  0.0  0.0  0.0 
P  1.195407087564737  1.6282204687940758  -4.6175151356379686e-15 
C  2.9047514462435435  1.111059239010705  0.3954089602701949 
C  3.3123573473338466  -0.2012560960142573  0.10102225735263037 
C  4.612536399450852  -0.5800335630834292  0.43815587014857094 
H  4.894191015990853  -1.470337890895768  0.26264150931071584 
C  5.5071389163253155  0.30857067247908576  1.0238126888933485 
H  6.3848794812359255  0.02569944967648974  1.2516441661316469 
C  5.107126104068433  1.6055463987233676  1.2702746445040738 
H  5.719353160269369  2.226939013784491  1.6464974901727798 
C  3.811254403488199  2.0040115098274653  0.9703133788911155 
H  3.538360136221285  2.8943790569654246  1.1583158254081454 
C  2.4481314239282272  -1.1778490608341246  -0.6647211685924106 
H  2.2052108065487435  -0.7612440690651701  -1.529329909286829 
H  2.9941475673230364  -1.9786397553312236  -0.8669024109447091 
N  1.1954070875647334  -1.6282204687940758  -1.1102230246251565e-16 
C  1.5052373030749278  -2.257134298110092  1.298318174736841 
H  1.9213628642572482  -1.5964604608644972  1.8903590669984274 
H  2.1220807650704265  -3.0059336182064635  1.1595438557270374 
H  0.6778976351371188  -2.5870580831843952  1.7071472097855036 
C  0.5852642799836646  -2.6374124526149214  -0.9069528952205039 
H  0.34727271621871103  -2.2115413139763267  -1.7567568072210271 
H  -0.22080841923977634  -3.0067646174635856  -0.4894839000984016 
H  1.2275743235309116  -3.35896966953785  -1.0717927285884654 
C  0.9518986273839977  3.10447747211025  1.0533368786767023 
C  0.8161937690258705  4.370699813932893  0.47559999004383635 
H  0.828950645556758  4.456937871180754  -0.4701964201752486 
C  0.6635216464810879  5.502465554701908  1.263697694024283 
H  0.5744304883042207  6.358713828028536  0.8610697889309068 
C  0.6420688767143092  5.372556878908966  2.632644619446536 
H  0.5718597829924552  6.148249848139006  3.1764563429739496 
C  0.7212058373836232  4.126261737131923  3.225783769257912 
H  0.6748584811809466  4.055577973964864  4.171869335260066 
C  0.8681746427588652  2.9684739828751536  2.4555549484912227 
C  0.8640959405889015  1.6103682764423057  3.1338398033591237 
H  -0.03423524458370175  1.206949978620211  3.0324806955852797 
H  1.51129591362159  1.0215950799537397  2.6704528505829908 
N  1.2006725582144442  1.6525115803222925  4.548650484123821 
C  2.6338089065077273  1.8994645837431405  4.724983581703474 
H  2.8410919124896514  1.9522247268849506  5.681349778683905 
H  2.875506235430038  2.7445125679507476  4.291356961696732 
H  3.143837665258679  1.1671873290031427  4.320068359172374 
C  0.8274985859388375  0.3915771587567698  5.186860371956421 
H  1.037653941134643  0.4341330756783406  6.142822369432002 
H  1.3270041441601885  -0.34390653829252193  4.7746293460975116 
H  -0.1339142615035782  0.23865376799236526  5.070337312737182 
C  1.3552567862920006  2.200260568922429  -1.723610306206715 
C  2.3437930185037166  3.1024025104789765  -2.133579103664835 
H  2.9309150957960917  3.4845112463191517  -1.4916048983025676 
C  2.4697637846832947  3.4392150831683304  -3.467300812623107 
H  3.123970227734138  4.072894762778409  -3.7375422112281824 
C  1.6399509088925392  2.8525035853651315  -4.413950937810554 
H  1.734233555401708  3.079455756205783  -5.331316254747031 
C  0.6820314722811349  1.9427146019990542  -4.0269552676696225 
H  0.12337130396028817  1.5358164713726241  -4.678852458662551 
C  0.5311014892606908  1.6190168349574967  -2.6851881023842914 
H  -0.13755335577817562  0.998146283717761  -2.421226027818054 
Br  -1.5839191898578664  1.5839191898578664  0.0 
C  -1.2937473829822488  -1.2398794889499034  -0.4598005675376139 
C  -1.601562203225019  -1.4938654694550033  -1.7919791134336869 
H  -1.1309417375171225  -1.0428217585005106  -2.480879663633267 
C  -2.60218398542082  -2.411889969420291  -2.121542410022959 
H  -2.8231586547736818  -2.5626138747145775  -3.03270050271447 
C  -3.2683208079706407  -3.09759503004543  -1.143064365570095 
H  -3.9596020908062854  -3.707191723557817  -1.3683280760515548 
C  -2.9347449854640226  -2.896087320001541  0.14198826503765638 
H  -3.3668350933519986  -3.405606940434718  0.8171022443470677 
C  -1.9675509241539992  -1.9516175659140573  0.5112421903797603 
H  -1.7755298364628027  -1.8022912010877177  1.4301324877763764 

-Ni 0
lanl2dz
F 1 1.0
3.130 1.0
****
-C 0
6-31g(d)
****
-N 0
6-31+g(d)
****
-H 0
6-31g(d,p)
****
-Br 0
6-31+g(d)
****
-P 0
6-31+g(d)
****

-Ni 0
lanl2dz


