%chk=IPUGEYIY_PN_Pd_gaussain.chk
%nprocshared=32
%mem=64GB
#p opt rwb97xd/gen pseudo=read

This Gaussian input file was generated using the DART python program. This file was generated on the 2023-10-04 at 16:41:16

0 1
Pd  0.0  0.0  0.0 
C  3.0877095462252555  -1.109803734447016  0.7686939800701089 
H  2.924930654000724  -1.1294945848748157  1.7343040269604688 
C  3.595175553700254  0.3180461307046967  0.4646918849397864 
H  4.426429588878362  0.44828685743987284  0.9482850012055276 
H  3.8075403612760637  0.3614189446996885  -0.4825352459583213 
C  2.711270475153728  1.4670191847184555  0.777363411097801 
H  3.210684839127376  2.287090670095422  0.5758104356089322 
C  4.161525659458528  -2.1197134596349434  0.5278230770297833 
H  4.278737491155011  -2.2397214466695443  -0.41913012643820224 
H  3.9127675069085295  -2.9540791259825365  0.9270550601677261 
H  4.983050416505849  -1.810412995766607  0.9141404939412726 
C  1.6870789810674767  -1.9747824753902268  -1.6853718682033767 
C  0.6468373334025286  -2.688784945673536  -2.281821595248886 
H  -0.10414665444792837  -2.9090502344618  -1.7840277196866503 
C  0.716059863489688  -3.0593830255664356  -3.6061921304496867 
H  0.04169886547307211  -3.5711200310600466  -3.991468085529276 
C  1.775114448488702  -2.6802228747817667  -4.3118004184179775 
H  1.837909747356231  -2.9696707527208472  -5.194540038236162 
C  2.763381087581907  -1.8954777860681153  -3.829326392386258 
H  3.439329667168707  -1.5754773900062713  -4.380129473600301 
C  2.730753051102763  -1.5877155042768984  -2.464536610353071 
H  3.4342644153009383  -1.1118933663943509  -2.0852321237662275 
C  1.0466119056070853  -2.995023980929644  0.9266973145760643 
C  0.43939139385189385  -2.8876605852970023  2.076012193702759 
H  0.1831693439433244  -2.045988830483303  2.374284516068546 
C  0.15722654105078027  -4.0198966167131545  2.8938375570944435 
H  -0.26056732271817373  -3.9476871903539195  3.721627890537621 
C  0.5376150674955804  -5.172701027853794  2.3882370739025958 
H  0.3204228503277582  -5.943007525588909  2.8751965592284203 
C  1.1895775295000532  -5.340962771956462  1.242787300403715 
H  1.4691124355086245  -6.188664811439692  0.9815134429691136 
C  1.4573432768289731  -4.207024035788335  0.41814089910505114 
H  1.8839133826189944  -4.286045823700366  -0.402616703285261 
C  2.328919728580032  1.5212625774188477  2.2080619855511743 
H  1.833066998762399  2.32576014553218  2.377100422695318 
H  3.1217469181274584  1.5132991794563175  2.7500672362704397 
H  1.7860786555957509  0.7590627357107749  2.4217163578009964 
C  1.7485336933326154  1.9170429410922518  -1.3673943439011378 
H  0.9038404806625244  1.9032004742026694  -1.8456093923673036 
H  2.3161860880895278  1.2440383879764412  -1.7742114283655743 
C  2.376565780957309  3.240806338704026  -1.6182039809909332 
C  3.562312333298396  3.3624967787960065  -2.2354306900707286 
H  3.9976295821818932  2.6108378878515603  -2.564678551853721 
C  4.145616706542693  4.653556781346931  -2.396917432459325 
H  4.948521862398644  4.765920273370505  -2.852175739753398 
C  3.496350008086309  5.690663870339575  -1.860795673679871 
H  3.8825500232744643  6.53366402112437  -1.9226710649553334 
C  2.360675858787349  5.583386592406604  -1.2667789885157261 
H  1.9649066975345724  6.34056337167976  -0.902064640113028 
C  1.7204611221000998  4.369327677054149  -1.1515860157192002 
H  0.8727106532250622  4.30764500739734  -0.7717551049362839 
N  1.4867808513698308  1.5104908804756148  -8.351503581162362e-16 
H  1.046498009739104  2.3060937043877985  0.36598767185321757 
P  1.4867808513698315  -1.5104908804756148  -3.3306690738754696e-16 
Br  -1.654629867976521  1.654629867976521  0.0 
C  -1.352040782177733  -1.3199206589279684  -0.4819701001757076 
C  -1.6380700204479186  -1.599217458033982  -1.8139382277462257 
H  -1.1579680913617836  -1.159339363685303  -2.503515938957912 
C  -2.63068216563725  -2.52632649780156  -2.142289956238523 
H  -2.8368222554424674  -2.694399528648736  -3.0538898079700485 
C  -3.3101544432602585  -3.1961573187854975  -1.1619874135498987 
H  -3.9960123560788676  -3.811990145619169  -1.3868663427944008 
C  -2.9974710358883443  -2.9701089012107795  0.12423560353005347 
H  -3.438659168087169  -3.468581175155742  0.8017084178296768 
C  -2.0389854250767776  -2.015940632791841  0.4912562833419403 
H  -1.8619130127668426  -1.8492165108145995  1.4101568590026907 

-Pd 0
lanl2dz
F 1 1.0
1.472 1.0
****
-H 0
6-31g(d,p)
****
-P 0
6-31+g(d)
****
-N 0
6-31+g(d)
****
-C 0
6-31g(d)
****
-Br 0
6-31+g(d)
****

-Pd 0
lanl2dz


