%chk=KOTACILO_PN_Ni_gaussain.chk
%nprocshared=32
%mem=64GB
#p opt rwb97xd/gen pseudo=read

This Gaussian input file was generated using the DART python program. This file was generated on the 2023-10-04 at 16:41:16

0 1
Ni  0.0  0.0  0.0 
P  1.372905624032475  1.481630907986196  0.0 
C  2.0495993892752864  2.4654533850572404  -2.486702640383749 
H  1.5291413353045744  1.7361108820253937  -2.803217122403571 
C  2.163220343318302  2.6898328294978646  -1.1179057658567282 
C  2.69532478592623  3.3043596526710775  -3.396238212133554 
H  2.612670783731005  3.1499563807314153  -4.330427789005094 
C  3.5664518935679297  4.588849247712471  -1.5758474649140612 
H  4.085158993174356  5.321758644477104  -1.2656694983336028 
C  3.4543324838900356  4.360145328825839  -2.9286977321126955 
H  3.8999249802164506  4.929979776426244  -3.5445367123222455 
C  2.9336594430170395  3.767510597552955  -0.6662240173930436 
H  3.020848774013091  3.9327627319949836  0.2659874353486832 
N  1.372905624032475  -1.481630907986196  0.0 
C  2.6084569560239204  -0.9849191587690576  0.43128183848136437 
C  1.1989209945806398  -2.779113394776968  -0.019006188090762863 
H  0.35069294607416235  -3.1057633737908446  -0.29929385984450707 
C  2.1886129558315166  -3.738821569961208  0.34779911492429705 
C  3.6730104984846834  -1.8468976974969356  0.7868478436151997 
C  3.4545976113241945  -3.2772315907608207  0.74634482517461 
C  4.901206399363914  -1.279604952408069  1.1543744418812778 
H  5.629285629449409  -1.846061524335778  1.3812051206662184 
C  1.9146982561391632  -5.124859255818619  0.2846860364421808 
H  1.054155233098777  -5.430920227249315  0.021002405430650767 
C  5.067651728138838  0.08165521308167012  1.1931074301452735 
H  5.911227574534876  0.4472263597690649  1.4353242505498143 
C  4.436879804482521  -4.224444282150676  1.0918046785209754 
H  5.298778007611872  -3.936865130215239  1.372387890446563 
C  2.9009360841289666  -6.028701678909105  0.608179716231894 
H  2.731905681214874  -6.961405814298857  0.5488976049541024 
C  4.145143925517616  -5.568555885293984  1.021738244188209 
H  4.8127583253894155  -6.199900429308258  1.263310883009813 
C  0.9805465535177742  2.4322657742056055  1.5132617390633045 
C  0.44048796418179437  3.713707923371199  1.4211221252899455 
H  0.3308131240865928  4.11665171442065  0.568172782887478 
C  0.060461448940648754  4.409960484950192  2.5665320991457894 
H  -0.297686490123956  5.286437145230622  2.492010037127578 
C  1.1000124839466832  1.846766068898377  2.772293687248879 
H  1.457443889472318  0.9706912732097241  2.8529276298727226 
C  0.6984535615001416  2.537069351913804  3.9155655487331487 
H  0.7649893992743035  2.121741167490067  4.767020475029907 
C  0.20440025756433822  3.8245773471356297  3.811746498891617 
H  -0.03537649609051763  4.306573994310497  4.593612971199337 
C  2.7825004221557545  0.42220447692349894  0.49290850293903055 
C  4.007064135351574  0.9359549770629649  0.8785807678616638 
H  4.128363764179992  1.8765533693401486  0.9307647164634232 
Br  -1.5839191898578664  1.5839191898578664  0.0 
C  -1.2937473829822488  -1.2398794889499034  -0.4598005675376139 
C  -1.601562203225019  -1.4938654694550033  -1.7919791134336869 
H  -1.1309417375171225  -1.0428217585005106  -2.480879663633267 
C  -2.60218398542082  -2.411889969420291  -2.121542410022959 
H  -2.8231586547736818  -2.5626138747145775  -3.03270050271447 
C  -3.2683208079706407  -3.09759503004543  -1.143064365570095 
H  -3.9596020908062854  -3.707191723557817  -1.3683280760515548 
C  -2.9347449854640226  -2.896087320001541  0.14198826503765638 
H  -3.3668350933519986  -3.405606940434718  0.8171022443470677 
C  -1.9675509241539992  -1.9516175659140573  0.5112421903797603 
H  -1.7755298364628027  -1.8022912010877177  1.4301324877763764 

-Ni 0
lanl2dz
F 1 1.0
3.130 1.0
****
-H 0
6-31g(d,p)
****
-P 0
6-31+g(d)
****
-N 0
6-31+g(d)
****
-C 0
6-31g(d)
****
-Br 0
6-31+g(d)
****

-Ni 0
lanl2dz


