%chk=LUJONUNU_PN_Pd_gaussain.chk
%nprocshared=32
%mem=64GB
#p opt rwb97xd/gen pseudo=read

This Gaussian input file was generated using the DART python program. This file was generated on the 2023-10-04 at 09:55:46

0 1
Pd  0.0  0.0  0.0 
P  1.4855741154516657  -1.5116777260712682  1.5621690955988228e-15 
N  1.4855741154516657  1.5116777260712682  -1.851271288575528e-16 
N  3.425874038622977  3.457928553386359  -0.5080516069424427 
N  3.1209970966993366  2.528458610310834  -1.4062881766736488 
C  3.5892754518766514  0.3229845648178728  -0.32359086129442627 
C  3.204986851857543  -0.9185634633307651  0.20731587787508285 
C  4.144958132407078  -1.706298279067449  0.8661772455529857 
C  5.452104222398125  -1.2936001826144568  0.9586177161557236 
C  5.832933939072718  -0.0712971988944408  0.42392225808011075 
C  4.908952673067381  0.7233566577327792  -0.19799122321668075 
C  2.55095662698902  1.237333778384863  -0.9675994587008877 
C  1.745116289047249  2.4445964796373394  0.897385401803501 
C  2.853188252214091  3.355287039706554  0.6789601325592302 
C  3.210940381131778  4.340225253931327  1.6974963510682213 
C  4.294552537362481  5.193442978685441  1.5429794619120993 
C  4.598359175921783  6.1229640636139315  2.567722599991439 
C  3.8408552736853  6.173181910110416  3.697635652394044 
C  2.795418732468381  5.3175459483624286  3.8586228234730573 
C  2.4457878927033585  4.386729190443443  2.8567200841502918 
C  1.2941162369007446  3.5281324785813224  3.0051870959759874 
C  0.9318585726613708  2.617305136712367  2.0676827770505812 
C  3.6360480080848805  2.6960421571415396  -2.717909319958787 
C  3.8012147983786235  1.601835626561213  -3.5638283348883726 
C  4.311751881112897  1.8022788955028595  -4.824037378297136 
C  4.649681596755134  3.0529668578859654  -5.260719251101506 
C  4.495739192898283  4.138682147391145  -4.405142494504266 
C  3.9944205557018027  3.975259917414892  -3.118496300420953 
C  1.3175277691477658  -2.825795024844211  1.2211933960514376 
C  1.1002443637263064  -2.448667985682477  2.5436381200613316 
C  1.1320853221732707  -3.4624829599779625  3.5518549227676948 
C  1.2776389033861542  -4.762801133685928  3.2190664882918383 
C  1.4452189142985243  -5.122368361955305  1.9504681719216364 
C  1.4734699638646827  -4.154497184940276  0.9407255696204438 
C  1.5287001637400541  -2.374621836116652  -1.6006360944627798 
C  0.37401286637532993  -2.593989644665262  -2.2902143350397175 
C  0.40996674242060127  -3.3726174233909703  -3.48366895126692 
C  1.6167648579515896  -3.887173278508019  -3.9224409083421463 
C  2.7504430721429145  -3.6464090212043825  -3.244018850126852 
C  2.7138659134961833  -2.886201253251981  -2.0861515170484095 
H  3.8816353536462778  -2.535338982245022  1.2504174004828437 
H  6.0937314561191185  -1.8433980004072785  1.392526833941704 
H  6.737956162645376  0.21401061345316658  0.48788112809105166 
H  5.178544053988674  1.5647281505214723  -0.5495340349131884 
H  2.1770063922773866  0.7959181555363319  -1.7212833711365785 
H  4.826488502803765  5.154712884968864  0.7563937714048452 
H  5.334966276735427  6.715045202711037  2.466512700493365 
H  4.044154498098822  6.806692104435293  4.374392077586563 
H  2.290510676663616  5.3460698356013205  4.661523398289279 
H  0.7701519013726292  3.603830226868847  3.793291217268861 
H  0.14457348888491617  2.097807844759164  2.1850616955854334 
H  3.564446283887874  0.728050508728679  -3.2743008950830523 
H  4.430894185643694  1.0587299659825418  -5.403509543875665 
H  4.988498906486392  3.1799850256398945  -6.140713231584879 
H  4.738504631013484  5.006682609639233  -4.704667167267364 
H  3.902446554943877  4.716563748696698  -2.534150449993734 
H  0.9362981751822397  -1.5408103012494796  2.7724197453677184 
H  1.0488223095081417  -3.218427872284882  4.4669494779329115 
H  1.2608064600118887  -5.426456939879039  3.8992164274642365 
H  1.5450560560930309  -6.0398280930082  1.729068336748589 
H  1.6034893142910835  -4.426746274744353  0.04053581650415561 
H  -0.44777155530068935  -2.2310089308949705  -1.9759190507584572 
H  -0.38785844490413224  -3.5388150531284577  -3.972355239533687 
H  1.6415638244909683  -4.41156783452242  -4.7138509543240215 
H  3.573377403936674  -3.9932925903384024  -3.560105681583065 
H  3.5235122162170995  -2.7164078604055635  -1.6189021529652878 
Br  -1.654629867976521  1.654629867976521  0.0 
C  -1.352040782177733  -1.3199206589279684  -0.4819701001757076 
C  -1.6380700204479186  -1.599217458033982  -1.8139382277462257 
H  -1.1579680913617836  -1.159339363685303  -2.503515938957912 
C  -2.63068216563725  -2.52632649780156  -2.142289956238523 
H  -2.8368222554424674  -2.694399528648736  -3.0538898079700485 
C  -3.3101544432602585  -3.1961573187854975  -1.1619874135498987 
H  -3.9960123560788676  -3.811990145619169  -1.3868663427944008 
C  -2.9974710358883443  -2.9701089012107795  0.12423560353005347 
H  -3.438659168087169  -3.468581175155742  0.8017084178296768 
C  -2.0389854250767776  -2.015940632791841  0.4912562833419403 
H  -1.8619130127668426  -1.8492165108145995  1.4101568590026907 

-Pd 0
lanl2dz
F 1 1.0
1.472 1.0
****
-P 0
6-31+g(d)
****
-N 0
6-31+g(d)
****
-C 0
6-31g(d)
****
-H 0
6-31g(d,p)
****
-Br 0
6-31+g(d)
****

-Pd 0
lanl2dz


