%chk=ARUQEQIM_PN_Ni_gaussain.chk
%nprocshared=32
%mem=64GB
#p opt rwb97xd/gen pseudo=read

This Gaussian input file was generated using the DART python program. This file was generated on the 2023-10-04 at 09:55:46

0 1
Ni  0.0  0.0  0.0 
P  1.447346176628107  -1.409002854858712  1.7255308361922042e-16 
N  1.447346176628107  1.409002854858712  -1.7255308361922042e-16 
N  2.870182285412296  -0.42059202219247815  -0.12103525687977462 
C  2.640821440651627  0.9251119225948675  -0.13491026586900423 
H  3.4718641375287733  1.516530312647427  -0.2637184328259151 
C  1.2677391324433385  2.832940416859738  -0.12863719991427264 
C  0.8944430220559734  3.363007625328873  -1.367184529843757 
C  0.709596312989182  4.741865438356383  -1.4530103744371676 
H  0.4562027419478597  5.118380406491914  -2.287594957882618 
C  0.8824953254753352  5.584231879210058  -0.3660735037750073 
C  1.2215196503367702  5.014377788970819  0.8558080301675827 
H  1.3281590723792647  5.576903966449344  1.613245244277005 
C  1.408200028100415  3.64283963109123  1.0019586649191567 
C  0.7025683230377562  2.4777276447392795  -2.565184407074115 
H  1.5612943360457296  2.078319369547083  -2.8164069663546196 
H  0.35827246496396037  3.0102327084534597  -3.312255367045114 
H  0.06202954426100593  1.7688491165263935  -2.3471633871656583 
C  0.7271857443624038  7.077384485498399  -0.4974983429373908 
H  1.5999607369803124  7.483319500482704  -0.680295240806372 
H  0.3651855838486324  7.441983789345455  0.3370542026954548 
H  0.11314230737273534  7.2791882426870345  -1.2342334656745169 
C  1.752515754407061  3.054858100647083  2.338394495954265 
H  1.1611115471363964  2.2943980765206984  2.523638646545482 
H  1.638723731133515  3.7357171505006033  3.0346617073550846 
H  2.6844290561024122  2.748312046811506  2.3302874002282112 
C  4.204209543699756  -0.9184758040321856  0.19830665068484724 
C  4.975681743271445  -1.5627693353543988  -0.7767004368711468 
C  6.214364003944292  -2.078719457451843  -0.38209559832748385 
H  6.748151818119366  -2.528052996994945  -1.0267669407027251 
C  6.688212738335484  -1.95909383751873  0.9077358278563942 
C  5.897868990816127  -1.2995188715807149  1.8400309447935932 
H  6.217158200665038  -1.2025017580038178  2.7292678143324434 
C  4.65697893135591  -0.7804629076569689  1.512198401186246 
C  4.532125862518633  -1.7174153953312261  -2.2016898883350144 
H  3.9678842196922286  -2.5158654560394518  -2.284260397934978 
H  5.317434259749498  -1.8119688978600483  -2.7799186115910186 
H  4.0194393729606  -0.9267388603914067  -2.4721049591432505 
C  8.040107916330085  -2.509892022436404  1.3012058231627177 
H  8.139551575302765  -3.4160351083764438  0.9448199697773846 
H  8.110962683347369  -2.5333914389818166  2.279036053526321 
H  8.74509141479637  -1.934922800616598  0.93727446857757 
C  3.8544874642270868  -0.07140001147129461  2.5743993211812555 
H  3.977197002005698  0.8960693661096986  2.4836652989998953 
H  4.159000282822342  -0.35694677144598863  3.460262629586759 
H  2.904872460538021  -0.29195768027116603  2.4674793534379376 
C  1.8490934168463946  -2.658392303524182  1.2162200378798373 
C  1.3276736353312857  -2.5542380468497226  2.5106642901600695 
H  0.6977042545727375  -1.8741264227351697  2.71445982016737 
C  1.7332417045408837  -3.4410085283227994  3.49021608788473 
H  1.3913395887432947  -3.3596472063036926  4.3731041716713905 
C  2.631153093096306  -4.44795423826763  3.190047009653494 
H  2.896013388238139  -5.062401612887615  3.865371478246197 
C  3.1493653841237927  -4.568440523596715  1.9037185965040133 
H  3.76447626370331  -5.262733843604284  1.6996502216494502 
C  2.764234440130017  -3.672860918737409  0.9259870345001595 
H  3.123962143117253  -3.746408221812527  0.04985169454751604 
C  1.2267859193650823  -2.207283391424969  -1.5996393368055217 
C  1.2869610509279936  -1.3972990992963048  -2.736414230989158 
H  1.477125235915433  -0.47114742366265083  -2.6490978724471548 
C  1.0696364903801596  -1.939050120146113  -3.9874715145661015 
H  1.1249067272912325  -1.3912431144055908  -4.761153868877864 
C  0.7735723380205007  -3.2867275030925165  -4.107611720918079 
H  0.6307719473836028  -3.663240210764211  -4.968656045790893 
C  0.68591185038907  -4.085167180571247  -2.9887994845102224 
H  0.47613401033677594  -5.007068850621627  -3.0842258361187502 
C  0.9010010899045908  -3.555236767424657  -1.7239622672103427 
H  0.8269056014331064  -4.1052048404685575  -0.9526526100553409 
Br  -1.5839191898578664  1.5839191898578664  0.0 
C  -1.2937473829822488  -1.2398794889499034  -0.4598005675376139 
C  -1.601562203225019  -1.4938654694550033  -1.7919791134336869 
H  -1.1309417375171225  -1.0428217585005106  -2.480879663633267 
C  -2.60218398542082  -2.411889969420291  -2.121542410022959 
H  -2.8231586547736818  -2.5626138747145775  -3.03270050271447 
C  -3.2683208079706407  -3.09759503004543  -1.143064365570095 
H  -3.9596020908062854  -3.707191723557817  -1.3683280760515548 
C  -2.9347449854640226  -2.896087320001541  0.14198826503765638 
H  -3.3668350933519986  -3.405606940434718  0.8171022443470677 
C  -1.9675509241539992  -1.9516175659140573  0.5112421903797603 
H  -1.7755298364628027  -1.8022912010877177  1.4301324877763764 

-Ni 0
lanl2dz
F 1 1.0
3.130 1.0
****
-P 0
6-31+g(d)
****
-N 0
6-31+g(d)
****
-C 0
6-31g(d)
****
-H 0
6-31g(d,p)
****
-Br 0
6-31+g(d)
****

-Ni 0
lanl2dz


