%chk=UPANENUJ_PN_Pd_gaussain.chk
%nprocshared=32
%mem=64GB
#p opt rwb97xd/gen pseudo=read

This Gaussian input file was generated using the DART python program. This file was generated on the 2023-10-04 at 16:41:16

0 1
Pd  0.0  0.0  0.0 
C  3.1877294556527076  1.129355093847101  -0.11743936737225283 
H  3.3942408229370784  1.134768766548839  -1.0733647187100224 
C  3.5682511060585203  -0.2778138852682412  0.37464928092999544 
H  4.530877420074321  -0.37568903485079147  0.29386410494727305 
H  3.3485927061660927  -0.3425898312397447  1.3161824105543292 
C  2.9072493080962656  -1.4366762467527763  -0.3522297119052464 
H  3.350651839723242  -2.254477049829582  -0.044134318506162507 
C  4.173838793591426  2.122189432733769  0.5242853938435856 
H  4.209062489684811  1.9690180646020317  1.4729918411802636 
H  3.8787617322208527  3.0181917151023328  0.3561567590331148 
H  5.045550199111608  1.9941742780401501  0.1485117443485435 
C  0.9851539614868424  2.0602587020177277  1.6700621024998887 
C  1.6529344530959216  3.0465618423612058  2.4281703206158336 
H  2.3877870548948756  3.4792466457605857  2.056927105813776 
C  1.2637863384843073  3.37538927237969  3.6582770786501553 
H  1.7310432675741174  4.040403211439339  4.111568368081086 
C  0.17472791084371453  2.7548938919593264  4.294999690202495 
H  -0.06467230898887166  2.9703785442871555  5.164568956767969 
C  -0.5141202491335581  1.8175334161949388  3.5685140737098364 
H  -1.2559332311247837  1.405607042722644  3.9458516050889694 
C  -0.12358493421619587  1.472435154865831  2.28082454287171 
H  -0.6132011783706621  0.8343707560783142  1.8146459221049311 
C  1.3520906459835096  3.0460499742220106  -1.0269835806906282 
C  1.8743500567463216  3.028244413574541  -2.3533981764636613 
H  2.2294452041136834  2.234895033904835  -2.684578094474776 
C  1.861799978032074  4.135338869340263  -3.147532504859728 
H  2.1875762462400345  4.082025761954685  -4.0188159120547775 
C  1.3950997955431297  5.290671600600143  -2.6946604371138947 
H  1.4326985148584162  6.058639279207792  -3.221843726795793 
C  0.8406909661142529  5.329976943670246  -1.39640386391372 
H  0.4614367944242548  6.127179230666137  -1.1049751301480442 
C  0.8311170294164802  4.252527760548416  -0.5375405176669358 
H  0.4962783747438464  4.322659993017538  0.3250682031943479 
C  3.076692778662743  -1.387293562936719  -1.8210861279042827 
H  2.751961055366677  -2.2064417930679743  -2.2044835261192435 
H  4.005351801588272  -1.280673893769526  -2.0334589257991595 
H  2.5775346834739583  -0.6492068750863218  -2.1748699986863347 
C  1.2658421055359557  -1.9585718916420916  1.4158743662612108 
H  2.034268042918656  -2.49003197495183  1.6784917659245528 
H  1.2680046409061483  -1.153380060177706  1.958382097066779 
C  0.03829132026097315  -2.718605509082512  1.7000447727626864 
H  -0.7233160564656267  -2.1934166839676137  1.4596138228205742 
H  0.0079526965881207  -2.9272792488761024  2.636798021080612 
H  0.04673290615697612  -3.5321663263901084  1.1908952896348357 
N  1.422381075872425  -1.57128357561581  2.291628934219636e-16 
H  1.1494883574079255  -2.378337865292967  -0.48391925744153036 
P  1.4223810758724251  1.571283575615809  -4.144713450681022e-16 
Br  -1.654629867976521  1.654629867976521  0.0 
C  -1.352040782177733  -1.3199206589279684  -0.4819701001757076 
C  -1.6380700204479186  -1.599217458033982  -1.8139382277462257 
H  -1.1579680913617836  -1.159339363685303  -2.503515938957912 
C  -2.63068216563725  -2.52632649780156  -2.142289956238523 
H  -2.8368222554424674  -2.694399528648736  -3.0538898079700485 
C  -3.3101544432602585  -3.1961573187854975  -1.1619874135498987 
H  -3.9960123560788676  -3.811990145619169  -1.3868663427944008 
C  -2.9974710358883443  -2.9701089012107795  0.12423560353005347 
H  -3.438659168087169  -3.468581175155742  0.8017084178296768 
C  -2.0389854250767776  -2.015940632791841  0.4912562833419403 
H  -1.8619130127668426  -1.8492165108145995  1.4101568590026907 

-Pd 0
lanl2dz
F 1 1.0
1.472 1.0
****
-H 0
6-31g(d,p)
****
-P 0
6-31+g(d)
****
-N 0
6-31+g(d)
****
-C 0
6-31g(d)
****
-Br 0
6-31+g(d)
****

-Pd 0
lanl2dz


