%chk=FOFAHEXA_PN_Pd_gaussain.chk
%nprocshared=32
%mem=64GB
#p opt rwb97xd/gen pseudo=read

This Gaussian input file was generated using the DART python program. This file was generated on the 2023-10-04 at 09:55:46

0 1
Pd  0.0  0.0  0.0 
P  1.5848280632295728  1.4072739640880165  -1.66465669913591e-15 
N  1.584828063229573  -1.4072739640880165  2.220446049250313e-16 
C  2.533361556123682  -1.0132205145456807  0.7850601325770786 
C  2.5136068341395497  0.40856210281173166  1.2370057044545297 
C  3.6557126854650175  -1.878402576511156  1.247798289766877 
C  3.8436359127661395  -2.0867878074494985  2.61242958288877 
C  4.813937368457836  -2.971349216078064  3.0396786196900942 
C  5.628356563841757  -3.606704337267586  2.1618009663872444 
C  5.499099208254833  -3.346483819198586  0.7908936471265166 
C  4.5065397643503164  -2.5108778959680937  0.3557533233479261 
C  1.5515041587695682  -2.7588993821228476  -0.4909615531930286 
C  1.4559070580764721  -3.851035774339845  0.36252107412537343 
C  1.3577120533986675  -5.116162796819633  -0.171845408775413 
C  1.373594290071233  -5.330879559661059  -1.525796078598063 
C  1.4707167990272734  -4.230969300891297  -2.3846499374746077 
C  1.5539600222886916  -2.956186972943818  -1.8637177133476526 
C  2.742341971439701  1.7504864034036287  -1.3578675464857521 
C  2.374123035849483  1.449611384889097  -2.6548264235156687 
C  3.2304091040783343  1.7103633915090737  -3.7033444016166053 
C  4.4738331697014875  2.258245758180769  -3.449714720152736 
C  4.863481924727413  2.5269871402080333  -2.170653671065203 
C  4.009436454139523  2.291082662137809  -1.1226925117683806 
C  1.247825647337053  2.9991794474327538  0.7967585228785292 
C  0.4717576945120989  3.008798896342814  1.953334957361256 
C  0.0979553134028106  4.2096904804454125  2.5459643467004964 
C  0.5064574407439055  5.401088774441802  1.9861269801195371 
C  1.2403746362634664  5.407562183481173  0.8301698852859303 
C  1.6124104485492579  4.209693166489562  0.23291628545716694 
H  3.4200321510147753  0.7426851250511959  1.3179939192592391 
H  2.084727183672559  0.4734518913890242  2.104422784499488 
H  3.3203310518551095  -1.633104007213948  3.2323719043596864 
H  4.9110185391440675  -3.1375025422724616  3.950837370124276 
H  6.267482237544371  -4.21022898966205  2.465862978428164 
H  6.084496098593942  -3.7370505560430276  0.18224097535714684 
H  4.401006236246003  -2.36410351139838  -0.5562623259038038 
H  1.4590589437657795  -3.7277368329624663  1.283908911396876 
H  1.277903400113404  -5.844762050529604  0.40074689500981603 
H  1.320889069520296  -6.193355908242244  -1.868541126505027 
H  1.4771812496044687  -4.357698199848493  -3.3061448626086882 
H  1.6127109566610731  -2.227174871405475  -2.4359753070246812 
H  1.5435531318959577  1.0669653161479848  -2.82244304179567 
H  2.973595222633231  1.5187970036702234  -4.576030209538081 
H  5.04763559192299  2.446499564305636  -4.156475736856579 
H  5.712711615574499  2.8702258785961394  -2.0075729835096956 
H  4.274827472033515  2.4931073192089315  -0.2544963959301951 
H  0.20295534914049296  2.2037678512796197  2.3330100363527597 
H  -0.4226876184967119  4.2083197096863225  3.3157451196810985 
H  0.2819701155587284  6.205422521022226  2.3959191041813668 
H  1.4910020007776648  6.21618390820515  0.44393377814278284 
H  2.108716455053075  4.221233748078112  -0.5529641462147564 
Br  -1.654629867976521  1.654629867976521  0.0 
C  -1.352040782177733  -1.3199206589279684  -0.4819701001757076 
C  -1.6380700204479186  -1.599217458033982  -1.8139382277462257 
H  -1.1579680913617836  -1.159339363685303  -2.503515938957912 
C  -2.63068216563725  -2.52632649780156  -2.142289956238523 
H  -2.8368222554424674  -2.694399528648736  -3.0538898079700485 
C  -3.3101544432602585  -3.1961573187854975  -1.1619874135498987 
H  -3.9960123560788676  -3.811990145619169  -1.3868663427944008 
C  -2.9974710358883443  -2.9701089012107795  0.12423560353005347 
H  -3.438659168087169  -3.468581175155742  0.8017084178296768 
C  -2.0389854250767776  -2.015940632791841  0.4912562833419403 
H  -1.8619130127668426  -1.8492165108145995  1.4101568590026907 

-Pd 0
lanl2dz
F 1 1.0
1.472 1.0
****
-P 0
6-31+g(d)
****
-N 0
6-31+g(d)
****
-C 0
6-31g(d)
****
-H 0
6-31g(d,p)
****
-Br 0
6-31+g(d)
****

-Pd 0
lanl2dz


