%chk=BUSOGECO_PN_Pd_gaussain.chk
%nprocshared=32
%mem=64GB
#p opt rwb97xd/gen pseudo=read

This Gaussian input file was generated using the DART python program. This file was generated on the 2023-10-04 at 16:41:16

0 1
Pd  0.0  0.0  0.0 
P  1.4946182338644214  1.5027362825858699  -2.6879739505896193e-15 
P  3.002966957519452  -0.9914197103408711  0.29170593205471346 
N  1.4946182338644207  -1.5027362825858699  1.1102230246251565e-16 
C  1.211760719283561  2.622249725826279  -1.3971907338832414 
C  1.090147133174083  2.0772169216734326  -2.6830050976507787 
H  1.1948456091340436  1.1415069862079932  -2.8083486088626537 
C  0.820457275565154  2.8851934702336877  -3.7686213363279526 
H  0.7414195375662735  2.509363954073905  -4.637646923267246 
C  0.6662397597654008  4.247308312817877  -3.5809142149062754 
H  0.46823598372412456  4.805161656557914  -4.323761044038289 
C  0.7965417696166885  4.80152430510554  -2.330517365853402 
H  0.7051657838615192  5.740644366525467  -2.2166769975041305 
C  1.0632522732236414  3.9900000182882245  -1.2260080860501898 
H  1.1429887401111594  4.373597354480884  -0.36048432004824016 
C  1.867185413556477  2.5048633240709073  1.454759124164831 
C  3.0194792623251026  3.307317995575181  1.4722513015876357 
H  3.572252453014083  3.361510984021473  0.7015436983691465 
C  3.350333917464189  4.0193220227614095  2.6104125390418904 
H  4.132536702004931  4.556872166696154  2.620076213936035 
C  2.5470371173711035  3.9522992482618893  3.7353651107793184 
H  2.7812245867418475  4.440378792556839  4.51569559053173 
C  1.404024678797975  3.174877139314278  3.7235909956707576 
H  0.8495003516290072  3.1369571990956633  4.494444962847209 
C  1.0620465529413077  2.447692121781065  2.583600569522007 
H  0.2774115367683556  1.911122406027281  2.5807437301532157 
C  3.0648078442721003  0.6495812081679873  -0.4464215231850582 
H  3.1510049805656153  0.5813084971215385  -1.4308983896584078 
H  3.842295759930873  1.1544500888836873  -0.0964596334177984 
C  3.449529468123571  -0.802695871510025  2.0294272637935 
C  2.4390884989011887  -0.6947449676289705  2.978087677254633 
H  1.5295662807195622  -0.785143776504631  2.7170031890369923 
C  2.75754912407628  -0.4573453792021076  4.299198893476754 
H  2.0660900862503393  -0.3572940982539423  4.943220383948542 
C  4.077697195639935  -0.3664729110368916  4.6868448062326165 
H  4.2961004103114355  -0.22638623885130094  5.600093299303984 
C  5.083683163550658  -0.47741033693914625  3.7460312806596727 
H  5.990403851680352  -0.40973793747793974  4.0183350266288125 
C  4.783369440666707  -0.686612056923595  2.406831113319789 
H  5.476706956722697  -0.7501027878692943  1.7601305366126576 
C  4.2527823618788805  -2.045311400022293  -0.4539172445206596 
C  4.661568198608519  -3.217149459971026  0.20633448091809614 
H  4.302546775167512  -3.431875392750628  1.0593446750555109 
C  5.584555220214767  -4.055792942932241  -0.3851903253522323 
H  5.839422753936143  -4.8598636531441315  0.0524125005460222 
C  6.135381758080483  -3.735780056724098  -1.5997153262656418 
H  6.787551393316532  -4.307548007599337  -1.9889130616496122 
C  5.749287089584856  -2.5932447297367482  -2.255730222091324 
H  6.129909609167521  -2.3818094042694917  -3.1005097085438873 
C  4.809205121771532  -1.7457443567448392  -1.69484262054273 
H  4.542858108620907  -0.9596002616763861  -2.156573397483952 
C  1.1859290310593256  -2.8886692763751447  0.09242387569160043 
C  1.4840407083431222  -3.6627083233318305  1.1994517035502548 
H  1.9171165745643917  -3.2659597108779814  1.9453706084002707 
C  1.1596038666486934  -5.015584136313226  1.2373036572815064 
H  1.3891135472698068  -5.537992448468383  1.9969745083034502 
C  0.5096927785960579  -5.592478835034566  0.17899830237986059 
H  0.286381426351342  -6.515906262774672  0.2066718575531148 
C  0.1777464624571392  -4.836300010999906  -0.9266548798085635 
H  -0.2867819053163809  -5.237279003110963  -1.6530775277341996 
C  0.5191934151973501  -3.4925668966804175  -0.9817474014941296 
H  0.30026810636659507  -2.9793169745631443  -1.7509861658579529 
Br  -1.654629867976521  1.654629867976521  0.0 
C  -1.352040782177733  -1.3199206589279684  -0.4819701001757076 
C  -1.6380700204479186  -1.599217458033982  -1.8139382277462257 
H  -1.1579680913617836  -1.159339363685303  -2.503515938957912 
C  -2.63068216563725  -2.52632649780156  -2.142289956238523 
H  -2.8368222554424674  -2.694399528648736  -3.0538898079700485 
C  -3.3101544432602585  -3.1961573187854975  -1.1619874135498987 
H  -3.9960123560788676  -3.811990145619169  -1.3868663427944008 
C  -2.9974710358883443  -2.9701089012107795  0.12423560353005347 
H  -3.438659168087169  -3.468581175155742  0.8017084178296768 
C  -2.0389854250767776  -2.015940632791841  0.4912562833419403 
H  -1.8619130127668426  -1.8492165108145995  1.4101568590026907 

-Pd 0
lanl2dz
F 1 1.0
1.472 1.0
****
-H 0
6-31g(d,p)
****
-P 0
6-31+g(d)
****
-N 0
6-31+g(d)
****
-C 0
6-31g(d)
****
-Br 0
6-31+g(d)
****

-Pd 0
lanl2dz


