%chk=UCAVOPIR_PN_Ni_gaussain.chk
%nprocshared=32
%mem=64GB
#p opt rwb97xd/gen pseudo=read

This Gaussian input file was generated using the DART python program. This file was generated on the 2023-10-04 at 16:41:16

0 1
Ni  0.0  0.0  0.0 
P  1.2279884975031312  1.6037905879509333  -2.3009885849692027e-15 
C  4.74112192546625  -0.306395986914866  -0.4855446184759249 
C  3.285893248717943  -0.38712956957382705  -0.1876566579933601 
C  2.881817518583247  0.9360187117184449  0.4384636819010085 
C  4.182113523902889  1.7762150129834486  0.24925624576153205 
C  5.111811514320054  1.2592658450379854  1.37016686413161 
C  5.42581999938042  -0.1880089783948935  0.9206457113841356 
C  4.865127255669384  1.136540876155689  -1.0284789305923394 
C  4.082740656885307  1.2912451261145304  -2.3348307075222037 
C  6.266332721437257  1.643316939131851  -1.2435534402319046 
C  5.316697460692202  -1.4331112535936135  -1.3259454699048252 
N  2.637914271573013  -1.4632379548992565  -0.4277238115369851 
N  1.227988497503132  -1.6037905879509333  1.1102230246251565e-16 
C  0.7133919024599396  -2.6347793170421556  -0.9611747160932024 
C  1.278614994506187  -2.1936979967534493  1.3666486588882831 
C  1.3339571357526905  2.673631135021467  -1.439410299932375 
C  2.0898571917641258  3.845835457782786  -1.4089560552102314 
C  2.2421147584190453  4.608698389634229  -2.5672467918577295 
C  1.636526962567917  4.200265315565059  -3.7552166969995358 
C  0.8787768687942115  3.0300189167519127  -3.7854868382416154 
C  0.7275112418987537  2.2660414441284824  -2.6286772681550388 
C  0.8106293978906087  2.662051368847801  1.4119547271730184 
C  1.0187242069224038  2.1868161506552624  2.70654008466922 
C  0.6099279261942163  2.9474506556616733  3.803243581817134 
C  -0.005700892856790096  4.1823284413770425  3.603989594402636 
C  -0.2135654957656301  4.658573616862116  2.308798438748468 
C  0.19623537338635222  3.8980928725784905  1.212733032298571 
H  2.6485479786549155  0.9035368774993291  1.3686986963932641 
H  4.052728157611203  2.727640480537498  0.22613598021108722 
H  5.910884013206465  1.7875882122882927  1.4374077578384838 
H  4.6563878619918135  1.2577272838202438  2.2144824151724674 
H  6.374475868183211  -0.31827518744337313  0.8561738774858266 
H  5.05495140481718  -0.8300999831286767  1.5300554316927832 
H  3.139596975259314  1.1191763335469296  -2.2992736205592164 
H  4.482872543525002  0.7402596254894114  -3.011424072398814 
H  4.232703311329193  2.2152149829854797  -2.5445830516474244 
H  6.804237719053726  1.5969447877058842  -0.4495016175456418 
H  6.186788447640344  2.5583570890275915  -1.5231186787450302 
H  6.679213367740491  1.1301850151869415  -1.9397484851272533 
H  4.824200795093193  -1.543105875912346  -2.1417710256671136 
H  5.19515999174334  -2.206458122766002  -0.7712821453711399 
H  6.249076104719689  -1.323849183273146  -1.5255675732670415 
H  -0.23596556921253997  -2.7612028860063877  -0.891102380681776 
H  1.1593543940689006  -3.472529426123795  -0.8152326015010259 
H  0.9296547248453627  -2.307219712972405  -1.8377600213747662 
H  0.367913816653033  -2.315986574497614  1.645297198109653 
H  1.7236942509496058  -1.6040919988730526  1.981138555263522 
H  1.7268902676769007  -3.0429624145850807  1.3560096707398688 
H  2.5080920104924775  4.125944490330458  -0.5914917402162998 
H  2.7632976265284652  5.415006762881498  -2.5458592903535373 
H  1.7404669517084501  4.72535011549267  -4.552774677050183 
H  0.4623920878281331  2.747951960256068  -4.603135256715571 
H  0.20741667791509544  1.459899644997563  -2.6493735047363622 
H  1.4424005464114829  1.335859772526328  2.8427955134742073 
H  0.752605855007597  2.618724808309257  4.694045673143796 
H  -0.28650159142286147  4.705503652844035  4.357809284906455 
H  -0.6360957742610445  5.508459967511844  2.170996534792516 
H  0.05442207775503216  4.224791198367662  0.3210582636139626 
Br  -1.5839191898578664  1.5839191898578664  0.0 
C  -1.2937473829822488  -1.2398794889499034  -0.4598005675376139 
C  -1.601562203225019  -1.4938654694550033  -1.7919791134336869 
H  -1.1309417375171225  -1.0428217585005106  -2.480879663633267 
C  -2.60218398542082  -2.411889969420291  -2.121542410022959 
H  -2.8231586547736818  -2.5626138747145775  -3.03270050271447 
C  -3.2683208079706407  -3.09759503004543  -1.143064365570095 
H  -3.9596020908062854  -3.707191723557817  -1.3683280760515548 
C  -2.9347449854640226  -2.896087320001541  0.14198826503765638 
H  -3.3668350933519986  -3.405606940434718  0.8171022443470677 
C  -1.9675509241539992  -1.9516175659140573  0.5112421903797603 
H  -1.7755298364628027  -1.8022912010877177  1.4301324877763764 

-Ni 0
lanl2dz
F 1 1.0
3.130 1.0
****
-H 0
6-31g(d,p)
****
-P 0
6-31+g(d)
****
-N 0
6-31+g(d)
****
-C 0
6-31g(d)
****
-Br 0
6-31+g(d)
****

-Ni 0
lanl2dz


