%chk=TIJOGATO_PN_Pd_gaussain.chk
%nprocshared=32
%mem=64GB
#p opt rwb97xd/gen pseudo=read

This Gaussian input file was generated using the DART python program. This file was generated on the 2023-10-04 at 16:41:16

0 1
Pd  0.0  0.0  0.0 
P  1.5906298838824828  -1.40071288010784  6.692498743455366e-17 
N  1.5906298838824826  1.40071288010784  5.050675041017767e-17 
C  2.769708978356566  0.9173410844919723  0.3047811283155652 
C  3.816450150821505  1.4169947500926745  1.2427385646198845 
C  4.00245751958048  2.6831712200794833  1.8003198193434575 
C  5.019832612976689  2.8276667607961627  2.7062380651306426 
C  5.786807807905408  1.7441155801408168  3.1351309646573418 
C  5.541127902550535  0.4873316453315165  2.624076891872388 
C  4.555616405071867  0.32482885248043925  1.644418425541932 
C  4.133240405165283  -0.9932132646577027  1.032080665679807 
C  3.332375755727264  -1.9042909474028982  1.9980909033502896 
C  1.8069157118667931  -1.6135105699363594  1.826088325853069 
C  3.1795816208149166  -0.5139774380061195  -0.06759625300356657 
C  1.3112723047180674  2.777521651832367  0.35351033798999626 
C  0.5357887511678825  3.031356809664731  1.4763727475582522 
C  0.3070106234191059  4.335247889654935  1.8086044735955877 
C  0.7893177434175984  5.341386945712946  1.058908580667355 
C  1.5651172355167975  5.102904920064491  -0.10048370044429751 
C  1.831148703827112  3.756537147780704  -0.4694177319787388 
C  0.004332372937070783  1.875661322038909  2.3201700442587856 
C  2.6437146934662215  3.4668598372038484  -1.6774475239204791 
C  1.7519970715427262  -3.0625535064471845  -0.6221140597950604 
C  0.6674525804332999  -3.947907601930711  -0.5376987032846865 
C  0.7767487111196587  -5.267246969223258  -0.9804818327387002 
C  1.9613007198129677  -5.697616132355098  -1.5165310488801653 
C  3.0539308354489965  -4.876784728340677  -1.5970151254974938 
C  2.9519668174225915  -3.5551864898369536  -1.140261039569667 
H  3.445099897075794  3.4163860991494395  1.5605739502520866 
H  5.208822202278341  3.6927405901356276  3.0535404620810973 
H  6.476230683885777  1.871127477101673  3.775806519135109 
H  6.03692671752588  -0.2607940125972682  2.9342572829639026 
H  4.917214445818836  -1.4794332028562902  0.6445583240276826 
H  3.6051411871368857  -1.7259145124116206  2.93281672243722 
H  3.5187695341599645  -2.8539837780261057  1.7962259563573493 
H  1.5466133114375282  -0.7912712185631282  2.311539249617871 
H  1.2641754722570948  -2.3694719629082557  2.160246693463994 
H  3.5973360080911565  -0.5594736855990551  -0.9751799314412294 
H  -0.20381160834361323  4.536019735187153  2.5843407970835233 
H  0.6035235760039542  6.2370173763429655  1.3139369302376642 
H  1.9012718410326173  5.825104850804127  -0.6175943280958407 
H  0.09133868236988696  2.0978345342792655  3.270500058454743 
H  0.5198085314566003  1.0653597312427883  2.125654204412193 
H  -0.9397556461473031  1.722458936276969  2.1061076906834026 
H  2.654992246868672  4.256692347286018  -2.2591885254035797 
H  2.252922459664039  2.7099925662193907  -2.160985758305775 
H  3.5595618261270796  3.2455092882061622  -1.4090716232599911 
H  -0.15586617585256324  -3.644844668028569  -0.1723539433078216 
H  0.03700251599543525  -5.861319392499565  -0.9109400273129816 
H  2.0269838169067813  -6.589381091997529  -1.8402256850885912 
H  3.8718553459988456  -5.1988206976003255  -1.9569788035885005 
H  3.7093736005449247  -2.9838317558543657  -1.1854096036217092 
Br  -1.654629867976521  1.654629867976521  0.0 
C  -1.352040782177733  -1.3199206589279684  -0.4819701001757076 
C  -1.6380700204479186  -1.599217458033982  -1.8139382277462257 
H  -1.1579680913617836  -1.159339363685303  -2.503515938957912 
C  -2.63068216563725  -2.52632649780156  -2.142289956238523 
H  -2.8368222554424674  -2.694399528648736  -3.0538898079700485 
C  -3.3101544432602585  -3.1961573187854975  -1.1619874135498987 
H  -3.9960123560788676  -3.811990145619169  -1.3868663427944008 
C  -2.9974710358883443  -2.9701089012107795  0.12423560353005347 
H  -3.438659168087169  -3.468581175155742  0.8017084178296768 
C  -2.0389854250767776  -2.015940632791841  0.4912562833419403 
H  -1.8619130127668426  -1.8492165108145995  1.4101568590026907 

-Pd 0
lanl2dz
F 1 1.0
1.472 1.0
****
-H 0
6-31g(d,p)
****
-P 0
6-31+g(d)
****
-N 0
6-31+g(d)
****
-C 0
6-31g(d)
****
-Br 0
6-31+g(d)
****

-Pd 0
lanl2dz


