%chk=UMOGALUJ_PN_Pd_gaussain.chk
%nprocshared=32
%mem=64GB
#p opt rwb97xd/gen pseudo=read

This Gaussian input file was generated using the DART python program. This file was generated on the 2023-08-13 at 16:51:13

0 1
Pd  0.0  0.0  0.0 
P  1.4315531626523692  1.5629317139593777  -1.8200216505635598e-16 
N  1.431553162652369  -1.5629317139593781  2.220446049250313e-16 
C  0.9458439936136718  3.069057831930761  -0.9071371339969562 
H  0.272586083472645  3.55510848162648  -0.38491130893376985 
H  1.726996184279372  3.651701796389766  -1.0037098304369019 
C  0.37389215359482986  2.76286894618112  -2.297029971212287 
H  0.9787336752683492  2.171482629207311  -2.771703561962638 
H  0.2745839641475394  3.590217923395365  -2.7945954678167713 
H  -0.490538396563706  2.3349485392775446  -2.2039207380067403 
C  2.786162688535266  0.8850209834157541  -1.0238477395595436 
H  3.1192902569836294  1.5895851688914995  -1.6188966717362074 
H  3.5253336384891427  0.6169524643256805  -0.436363241196262 
C  2.354719943386681  -0.33573399132755655  -1.8792974337544348 
H  1.476588178124093  -0.16029135838913056  -2.2765699792247425 
H  2.996963141211527  -0.4676462291806802  -2.6073665557149157 
C  2.285695314239678  -1.5645618363615559  -1.0500690346747672 
C  3.1070907903183644  -2.6436509289537584  -1.2814677860240657 
H  3.6898482797750423  -2.630647117067112  -2.019775512760426 
C  3.093422857582221  -3.73296019934217  -0.45765727318716426 
H  3.635692171215255  -4.4786434589438056  -0.641339193478289 
C  2.2723762955555307  -3.7210895367698433  0.6454154716281056 
H  2.2679428664603742  -4.442051588365457  1.2489833674488737 
C  1.4462382016394157  -2.617766282402239  0.849423476746394 
H  0.8818481444502532  -2.6046164212685516  1.6005246713255221 
C  2.205113885690108  2.17287957123651  1.5212762665526687 
C  2.6821311940379036  1.2309901803873706  2.4095298806418244 
H  2.573690872813995  0.31590354721846237  2.223601156318659 
C  3.325690991875049  1.6303095104807777  3.5801336604160223 
H  3.6785607421072246  0.9833998560348776  4.164760317656153 
C  3.4459332305853527  2.9403982857688953  3.8795939330634024 
H  3.8653610960079012  3.2095640536924797  4.676680675573354 
C  2.9585216784460875  3.8648710487789075  3.0217702511252487 
H  3.0500417999406846  4.777240755826172  3.231009169646872 
C  2.328457875142843  3.506675873007747  1.8497982378837432 
H  1.9859286104803193  4.168529980747023  1.276772773424791 
Br  -1.654629867976521  1.654629867976521  0.0 
C  -1.352040782177733  -1.3199206589279684  -0.4819701001757076 
C  -1.6380700204479186  -1.599217458033982  -1.8139382277462257 
H  -1.1579680913617836  -1.159339363685303  -2.503515938957912 
C  -2.63068216563725  -2.52632649780156  -2.142289956238523 
H  -2.8368222554424674  -2.694399528648736  -3.0538898079700485 
C  -3.3101544432602585  -3.1961573187854975  -1.1619874135498987 
H  -3.9960123560788676  -3.811990145619169  -1.3868663427944008 
C  -2.9974710358883443  -2.9701089012107795  0.12423560353005347 
H  -3.438659168087169  -3.468581175155742  0.8017084178296768 
C  -2.0389854250767776  -2.015940632791841  0.4912562833419403 
H  -1.8619130127668426  -1.8492165108145995  1.4101568590026907 

-Pd 0
lanl2dz
F 1 1.0
1.472 1.0
****
-C 0
6-31g(d)
****
-N 0
6-31+g(d)
****
-H 0
6-31g(d,p)
****
-Br 0
6-31+g(d)
****
-P 0
6-31+g(d)
****

-Pd 0
lanl2dz


