%chk=DUWOMUHA_PN_Ni_gaussain.chk
%nprocshared=32
%mem=64GB
#p opt rwb97xd/gen pseudo=read

This Gaussian input file was generated using the DART python program. This file was generated on the 2023-10-04 at 16:41:16

0 1
Ni  0.0  0.0  0.0 
P  1.447346176628107  -1.4090028548587115  1.7255308361922037e-16 
N  1.447346176628107  1.409002854858712  -1.7255308361922042e-16 
N  2.844826193533356  -0.420592022192478  -0.2935331807796032 
C  2.6154840314936934  0.9251119225948676  -0.27935271200201917 
H  3.4246344953964707  1.516530312647427  -0.5084793902251348 
C  1.2534009650238132  2.8329404168597376  -0.10578976518708967 
C  0.7319463973614548  3.3630076253288728  -1.2896117992656306 
C  0.5380179683058569  4.741865438356383  -1.352270763963614 
H  0.18480287931758488  5.118380406491914  -2.14975357235568 
C  0.8420925005220163  5.584231879210057  -0.29450684503791147 
C  1.3274996897364888  5.014377788970819  0.8769502973691651 
H  1.5256526136521609  5.576903966449343  1.615745612997973 
C  1.5305998621681625  3.6428396310912294  0.999260932387096 
C  0.3955024448160753  2.477727644739279  -2.455298323491988 
H  1.2172113159933595  2.078319369547083  -2.809300683281539 
H  -0.037272131509836104  3.0102327084534592  -3.154841619653626 
H  -0.21369177649105597  1.7688491165263935  -2.1608403588098755 
C  0.6719239146195037  7.077384485498398  -0.4060245867038535 
H  1.5159160368714015  7.483319500482703  -0.6938234595064596 
H  0.4143284191813883  7.441983789345454  0.4664240526808675 
H  -0.027327961376686583  7.279188242687034  -1.0624351270674142 
C  2.035219668494772  3.0548581006470825  2.283773641907507 
H  1.470799281505983  2.2943980765206984  2.5397110531180034 
H  2.0071294615950848  3.735717150500603  2.9887187422585155 
H  2.959198623322794  2.7483120468115056  2.1621553130554894 
C  4.207827803527845  -0.9184758040321852  -0.13914862542060086 
C  4.854726092735177  -1.5627693353543985  -1.2009069684144429 
C  6.132265636250194  -2.0787194574518426  -0.9602008482946885 
H  6.583509003795313  -2.5280529969949446  -1.6651192786738644 
C  6.759773283042638  -1.9590938375187297  0.26226873589654265 
C  6.088938831729481  -1.2995188715807144  1.2839333399811037 
H  6.514218821647964  -1.2025017580038175  2.12763040637883 
C  4.817345441766005  -0.7804629076569686  1.1097708672252362 
C  4.240813881446934  -1.7174153953312257  -2.5612189006435457 
H  3.670715196474233  -2.5158654560394513  -2.574410183652957 
H  4.949800354128837  -1.811968897860048  -3.230842613420842 
H  3.6989935721113536  -0.9267388603914063  -2.7671375726649488 
C  8.149543569361246  -2.5098920224364036  0.48805128782937635 
H  8.204813480428758  -3.416035108376443  0.1222027471275495 
H  8.33903772382581  -2.5333914389818166  1.449957896001797 
H  8.804920152506755  -1.9349228006165977  0.04091674630472454 
C  4.150285353026428  -0.07140001147129443  2.2618534108233783 
H  4.261022536810524  0.8960693661096986  2.1568411754857024 
H  4.5604879589906915  -0.35694677144598846  3.1040028512008555 
H  3.1947183693082084  -0.2919576802711658  2.2714593652933965 
C  1.9943187912918896  -2.658392303524181  1.1581938457664627 
C  1.634538664859368  -2.554238046849722  2.506534593293137 
H  1.034101407766498  -1.874126422735169  2.7855850171219787 
C  2.1564610256019923  -3.4410085283227985  3.4293586461574206 
H  1.9247043874003786  -3.3596472063036917  4.347333202410935 
C  3.011098110353023  -4.447954238267629  3.0219991113580305 
H  3.3562855265914573  -5.062401612887614  3.6600114635059104 
C  3.3686837264316756  -4.568440523596714  1.6821046034876284 
H  3.9543399839377527  -5.262733843604283  1.4045941643383146 
C  2.867267986604765  -3.672860918737408  0.7585965595519708 
H  3.1175402952294444  -3.7464082218125263  -0.1548479794026832 
C  1.0334829464151374  -2.2072833914249688  -1.560836334026482 
C  0.9546715317187996  -1.3972990992963041  -2.6964713843038113 
H  1.1540594489921334  -0.4711474236626506  -2.6329810530212066 
C  0.5865013457781558  -1.9390501201461126  -3.9117182751011756 
H  0.5470714462004223  -1.3912431144055903  -4.686369465948313 
C  0.278002602649952  -3.2867275030925156  -3.994881830719352 
H  0.031331717955443095  -3.66324021076421  -4.832105071919547 
C  0.3273444356450439  -4.085167180571246  -2.8737259249932956 
H  0.10750070098743048  -5.007068850621626  -2.9428754954193885 
C  0.6949753137723628  -3.555236767424656  -1.6445293969028507 
H  0.7154311233155365  -4.105204840468557  -0.8699389964405627 
Br  -1.5839191898578664  1.5839191898578664  0.0 
C  -1.2937473829822488  -1.2398794889499034  -0.4598005675376139 
C  -1.601562203225019  -1.4938654694550033  -1.7919791134336869 
H  -1.1309417375171225  -1.0428217585005106  -2.480879663633267 
C  -2.60218398542082  -2.411889969420291  -2.121542410022959 
H  -2.8231586547736818  -2.5626138747145775  -3.03270050271447 
C  -3.2683208079706407  -3.09759503004543  -1.143064365570095 
H  -3.9596020908062854  -3.707191723557817  -1.3683280760515548 
C  -2.9347449854640226  -2.896087320001541  0.14198826503765638 
H  -3.3668350933519986  -3.405606940434718  0.8171022443470677 
C  -1.9675509241539992  -1.9516175659140573  0.5112421903797603 
H  -1.7755298364628027  -1.8022912010877177  1.4301324877763764 

-Ni 0
lanl2dz
F 1 1.0
3.130 1.0
****
-H 0
6-31g(d,p)
****
-P 0
6-31+g(d)
****
-N 0
6-31+g(d)
****
-C 0
6-31g(d)
****
-Br 0
6-31+g(d)
****

-Ni 0
lanl2dz


