%chk=CEXESOQI_PN_Pd_gaussain.chk
%nprocshared=32
%mem=64GB
#p opt rwb97xd/gen pseudo=read

This Gaussian input file was generated using the DART python program. This file was generated on the 2023-10-04 at 16:41:16

0 1
Pd  0.0  0.0  0.0 
C  1.3775492927664468  -2.7657739506898897  -0.17648728397130517 
H  0.49949952454198177  -3.1208779459192026  -0.10380023496560792 
C  2.429487937016722  -3.6531476599227206  -0.46362587227890706 
H  2.2507926530310534  -4.577759716913237  -0.5881542206540724 
C  3.6987574180806817  -3.1906287708732695  -0.5620406664518911 
H  4.419558193164834  -3.790990702479598  -0.7171689479354032 
C  3.9383564474316346  -1.8015575762443559  -0.42972365550361646 
C  5.222225656580758  -1.2270823151156958  -0.5667674373762674 
H  5.974125559523946  -1.793557803502779  -0.6977800971104884 
C  5.40516419130402  0.12807424093356085  -0.5149456165858985 
H  6.276523596374096  0.4952358546933718  -0.612493535975298 
C  4.299593275473203  0.9758209054796638  -0.31589157161314096 
H  4.423686604889986  1.9186241703215092  -0.313669096008525 
C  3.036351761668569  0.4521272665375198  -0.12306701318726032 
C  2.8266986827533866  -0.9501850927003399  -0.17461799407153927 
C  1.803857951320641  2.836069347027343  1.1345142741750949 
C  0.8867215557528405  3.8907433337617663  1.0953331099422696 
H  0.21908185178438555  3.9119069415433394  0.4201244404255029 
C  0.9499982761176268  4.904870246850978  2.0396838450020973 
H  0.3313546903718392  5.6251052132140185  2.0055932738183873 
C  1.9148137150924902  4.86820012450987  3.0325050780764546 
H  1.959835477613748  5.566124686407651  3.675317093209396 
C  2.8152015927785796  3.8156371649827503  3.0912482133985004 
H  3.4682254553595246  3.790548165073345  3.7800052583595156 
C  2.7665307605719867  2.797481418423363  2.14599940708324 
H  3.3852323426329027  2.077777049337038  2.1873270427932265 
C  1.3775151504455287  2.175789126854623  -1.6682769304976357 
C  1.656139594454857  3.5077141613465552  -1.9757655509279786 
H  1.967123440562467  4.097340313011212  -1.3000288575826642 
C  1.475655271118712  3.9700946926662657  -3.278310303819967 
H  1.659747239136725  4.8775296067876095  -3.48594133219683 
C  1.03034962180493  3.1139059891475824  -4.270606626828484 
H  0.8849567589006699  3.4411658508310423  -5.150545021460423 
C  0.7964007956469444  1.7757887262622702  -3.980104927164567 
H  0.5120948686949773  1.182344832177336  -4.665700802643193 
C  0.9791769109525037  1.3056877635979776  -2.685568459321387 
H  0.8325065880480418  0.3872359157261957  -2.491820789606332 
N  1.5395942704167225  -1.456622628720287  1.783848239827903e-16 
P  1.5395942704167225  1.456622628720287  -1.783848239827903e-16 
Br  -1.654629867976521  1.654629867976521  0.0 
C  -1.352040782177733  -1.3199206589279684  -0.4819701001757076 
C  -1.6380700204479186  -1.599217458033982  -1.8139382277462257 
H  -1.1579680913617836  -1.159339363685303  -2.503515938957912 
C  -2.63068216563725  -2.52632649780156  -2.142289956238523 
H  -2.8368222554424674  -2.694399528648736  -3.0538898079700485 
C  -3.3101544432602585  -3.1961573187854975  -1.1619874135498987 
H  -3.9960123560788676  -3.811990145619169  -1.3868663427944008 
C  -2.9974710358883443  -2.9701089012107795  0.12423560353005347 
H  -3.438659168087169  -3.468581175155742  0.8017084178296768 
C  -2.0389854250767776  -2.015940632791841  0.4912562833419403 
H  -1.8619130127668426  -1.8492165108145995  1.4101568590026907 

-Pd 0
lanl2dz
F 1 1.0
1.472 1.0
****
-H 0
6-31g(d,p)
****
-P 0
6-31+g(d)
****
-N 0
6-31+g(d)
****
-C 0
6-31g(d)
****
-Br 0
6-31+g(d)
****

-Pd 0
lanl2dz


