%chk=OREMISUF_PN_Pd_gaussain.chk
%nprocshared=32
%mem=64GB
#p opt rwb97xd/gen pseudo=read

This Gaussian input file was generated using the DART python program. This file was generated on the 2023-10-04 at 09:55:46

0 1
Pd  0.0  0.0  0.0 
P  1.4608292045957993  1.535603475836128  -1.0805825400501063e-15 
N  1.4608292045958011  -1.535603475836128  -4.996003610813204e-16 
N  2.75890859029026  1.0433422300816495  1.0020896588446653 
C  2.647172295203946  -1.4113331951270447  0.49636328298821647 
H  3.18039643144465  -2.198640686301946  0.4864358024294052 
C  3.2648485478980924  -0.25903086067411896  1.0561131886354278 
C  4.4432255112186905  -0.21733590100027667  1.7680535742388346 
H  5.003880787514721  -0.9589777590195752  1.958126574938869 
C  4.670818467280569  1.1070075489861713  2.1645719380368114 
H  5.403610211172602  1.4206351798026267  2.6830420039732505 
C  3.656465172583019  1.857364785168256  1.6746860618927637 
H  3.572616969563708  2.7973434565593562  1.776965268871777 
C  1.1499499658656458  -2.8382373793644007  -0.5490741592037114 
C  0.9597070925878144  -3.924058567084826  0.32179164989916653 
C  0.6911472730393011  -5.158885245871499  -0.25607533884543204 
H  0.5725522968420154  -5.915033947845336  0.3056768326003543 
C  0.592585550951327  -5.312295291958906  -1.6156459308701918 
H  0.4158762281352866  -6.169562412485064  -1.9864882683866738 
C  0.752520517488594  -4.216365371584335  -2.4472004907798404 
H  0.6770151498812937  -4.329025181048365  -3.3863614816616168 
C  1.0196831455963862  -2.9589955489817426  -1.9350019459255314 
C  0.9795462901073966  -3.788617271025794  1.8314074955909367 
H  1.0993702705414385  -2.819824816847502  2.054441112877975 
C  2.1566341536845703  -4.561458739331149  2.4353116570991915 
H  2.0616549789427854  -5.515940018557176  2.2288154489683287 
H  2.164217279909515  -4.436504818596161  3.4071592500321746 
H  2.9958762163287904  -4.226217267101676  2.0565107653551036 
C  -0.3408807645168721  -4.253087963638444  2.4453195569810364 
H  -1.0803102361618544  -3.7501387178512333  2.0468428040519444 
H  -0.32292652023017787  -4.097469567509273  3.4126251394617295 
H  -0.46438188392434543  -5.208017193791143  2.2706174994514368 
C  1.1808827894092204  -1.7561796631982782  -2.850403038202335 
H  0.9155463211129031  -0.94750684528619  -2.3279599674643268 
C  2.628395959752743  -1.575824467760081  -3.253885720805394 
H  3.1817115313250413  -1.4749685127970524  -2.451136342353963 
H  2.7148974928892784  -0.7761243209944273  -3.8122611232256887 
H  2.9271304543876773  -2.3615022641346117  -3.7598481719806434 
C  0.2809525608710166  -1.8171372290497299  -4.0798177399725315 
H  0.542628303183172  -2.579181124764952  -4.639285028460942 
H  0.373272742690238  -0.9884577326666433  -4.594515910071425 
H  -0.6514880546684623  -1.9238808758174926  -3.7967689944054497 
C  2.2042688190814177  1.9123113917159251  -1.6040472485955737 
C  3.573883382894939  2.094094761832358  -1.7501222051728185 
H  4.148041808381745  2.0327151632034353  -0.9957114302532901 
C  4.094696761903617  2.3660001310049914  -3.004995463498412 
H  5.030379953185122  2.4920890224713075  -3.1088634422122987 
C  3.270249790379881  2.456900902067648  -4.101120730502886 
H  3.6382320285109278  2.6451679837389657  -4.956810410456451 
C  1.91075497179021  2.274860597132945  -3.960060227146398 
H  1.3433341907691956  2.3368307225575338  -4.720341728184265 
C  1.3717594336224557  2.000441988012156  -2.7157630131321895 
H  0.43504944774237586  1.8738656041613921  -2.6197434765584844 
C  0.985915773856786  3.0863006821597967  0.7772071651777834 
C  1.09781361149316  4.286740143913606  0.10241832220796787 
H  1.4296031620669494  4.3057908789896455  -0.7858976877924813 
C  0.7210083440263002  5.469295757113967  0.7323388426687305 
H  0.7934973474642217  6.29720268100769  0.2732961978639037 
C  0.24434767435637683  5.434889107981297  2.020498378007951 
H  -0.01446687909820743  6.243492217142601  2.4486994741938077 
C  0.1368176420365863  4.231721139118765  2.702592529025615 
H  -0.18388126112173264  4.218519749359626  3.596289310278347 
C  0.4945904186485195  3.06152029412422  2.0823184584008274 
H  0.4075252513598633  2.2349794422881653  2.5417064936075877 
Br  -1.654629867976521  1.654629867976521  0.0 
C  -1.352040782177733  -1.3199206589279684  -0.4819701001757076 
C  -1.6380700204479186  -1.599217458033982  -1.8139382277462257 
H  -1.1579680913617836  -1.159339363685303  -2.503515938957912 
C  -2.63068216563725  -2.52632649780156  -2.142289956238523 
H  -2.8368222554424674  -2.694399528648736  -3.0538898079700485 
C  -3.3101544432602585  -3.1961573187854975  -1.1619874135498987 
H  -3.9960123560788676  -3.811990145619169  -1.3868663427944008 
C  -2.9974710358883443  -2.9701089012107795  0.12423560353005347 
H  -3.438659168087169  -3.468581175155742  0.8017084178296768 
C  -2.0389854250767776  -2.015940632791841  0.4912562833419403 
H  -1.8619130127668426  -1.8492165108145995  1.4101568590026907 

-Pd 0
lanl2dz
F 1 1.0
1.472 1.0
****
-P 0
6-31+g(d)
****
-N 0
6-31+g(d)
****
-C 0
6-31g(d)
****
-H 0
6-31g(d,p)
****
-Br 0
6-31+g(d)
****

-Pd 0
lanl2dz


