%chk=DELIYAXA_PN_Pd_gaussain.chk
%nprocshared=32
%mem=64GB
#p opt rwb97xd/gen pseudo=read

This Gaussian input file was generated using the DART python program. This file was generated on the 2023-10-04 at 09:55:46

0 1
Pd  0.0  0.0  0.0 
N  1.5776148690348986  1.4153555472035997  1.9770897480305565e-16 
P  1.5776148690348986  -1.4153555472035992  -2.220446049250313e-16 
C  2.4965878687605727  -0.42874826837606517  1.1754690609028262 
C  2.7823597953488464  -1.1426354623015167  2.281245589105188 
C  3.3625544720483562  -0.5839987709329261  3.5545313874184927 
H  4.197595174151258  -0.1375377624262768  3.3446987786210904 
H  2.7524647543012803  0.08193504468126167  3.9068611186658417 
C  3.616332316728484  -1.5986226496023506  4.6028177845368425 
H  4.497366474515927  -1.9677030520723133  4.440545022422 
H  3.657119024056274  -1.1315206261523385  5.451519672241991 
C  2.7544386978128292  -2.6514669705534883  4.759532606788699 
H  1.8761983677695986  -2.324669593799743  5.007469306840209 
H  3.0744030791148225  -3.2358831136450696  5.463133833615383 
C  2.658179102222221  -3.493454573848317  3.3325739156715883 
H  3.499436436783327  -3.946686248580096  3.1662087568582553 
H  1.9633276341275794  -4.166815572703332  3.400010867765232 
C  2.352683986354908  -2.565850299718079  2.178300527432677 
C  1.7019938566606732  -2.8867769572617883  1.0473111483506587 
C  1.2417573150491346  -4.207492881746807  0.5539359335524858 
C  1.691971199372328  -5.393711544836193  1.1594787905833224 
H  2.2641242567614652  -5.362996184949492  1.8914025472597327 
C  1.2685707215600173  -6.618121042805759  0.6424353140069007 
H  1.5483728008819448  -7.39901524086341  1.06480209519007 
C  0.45282652811992885  -6.725385634589749  -0.4674486701185766 
H  0.20207882106443154  -7.553854949114099  -0.8105155911383277 
C  0.036357225867881704  -5.557539531703611  -1.035411582864967 
H  -0.48272230611900935  -5.5860881392106325  -1.8050494759560383 
C  0.3744403036464321  -4.318993522212589  -0.48154623380108363 
H  -0.007872222893185787  -3.5492350490483364  -0.8355752227874863 
C  2.5306318083659627  1.0026438535559445  0.8691527318455516 
C  3.550840834590944  1.86788476593274  1.2906300341507126 
H  4.182967855114848  1.5878296654435755  1.9153368858928663 
C  3.5972039169520507  3.1368498069420716  0.7701187189133168 
H  4.262656005951825  3.719624468495963  1.055208548785536 
C  2.6660963791595202  3.580649498292448  -0.18729059638671916 
C  2.797207305637097  4.845255125858147  -0.9234236833264167 
C  3.624545481973228  5.946711740826812  -0.5034252698549246 
C  4.0754602238520485  6.146901043479286  0.8299253099476583 
H  3.8351780158603432  5.537451678120691  1.4905656595983923 
C  4.859356019686058  7.219449272084654  1.1564644019248314 
H  5.1517460015673295  7.324231985723651  2.0349537026097924 
C  5.231319710801423  8.175974417073718  0.18167574303743372 
H  5.789859862265204  8.882675826466025  0.4115079147753151 
C  4.770585482965252  8.06054217086336  -1.0963493536782187 
H  5.015367162116748  8.68463914193556  -1.7406006092069342 
C  3.9136672270550577  6.975349900246533  -1.4386484750345632 
C  3.3413017418777504  6.943282964776028  -2.747425764349768 
H  3.5944149340416747  7.570830771936478  -3.3855469610520377 
C  2.44352871861059  6.007359621968478  -3.047599772354613 
H  1.9894778513085154  6.063208832547527  -3.8577707515805812 
C  2.158792367683811  4.93226421360526  -2.175056327374797 
C  1.2079637618522532  3.9374611566759463  -2.5712265562619745 
H  0.7873567193568068  4.014152561330036  -3.395891793952666 
C  0.9045763627351496  2.8698049568005195  -1.7565634756424378 
H  0.18709740966374144  2.311764359467571  -1.9577390547464615 
C  1.6818259525771437  2.6386946498205686  -0.6311797050565423 
C  2.4645767262256326  -1.7430845838519962  -1.5427608993056419 
C  2.1154444527063894  -1.0097918383997455  -2.674306808694377 
H  1.4597608236343758  -0.3532621615733669  -2.6279221990354458 
C  2.770940890559133  -1.2830824548559632  -3.888346704628364 
H  2.5505989377005114  -0.8064987714608475  -4.654523744568873 
C  3.7362802228703327  -2.2524026392510486  -3.939388977474284 
H  4.167589367554657  -2.427172201915867  -4.742225748977442 
C  4.074531056908985  -2.970851323052847  -2.819065728578832 
H  4.731586394089184  -3.627969417398516  -2.8761448312920894 
C  3.4524915224863277  -2.727506005559663  -1.6057501826183247 
H  3.6893315803528113  -3.2127740086116208  -0.848063438505852 
Br  -1.654629867976521  1.654629867976521  0.0 
C  -1.352040782177733  -1.3199206589279684  -0.4819701001757076 
C  -1.6380700204479186  -1.599217458033982  -1.8139382277462257 
H  -1.1579680913617836  -1.159339363685303  -2.503515938957912 
C  -2.63068216563725  -2.52632649780156  -2.142289956238523 
H  -2.8368222554424674  -2.694399528648736  -3.0538898079700485 
C  -3.3101544432602585  -3.1961573187854975  -1.1619874135498987 
H  -3.9960123560788676  -3.811990145619169  -1.3868663427944008 
C  -2.9974710358883443  -2.9701089012107795  0.12423560353005347 
H  -3.438659168087169  -3.468581175155742  0.8017084178296768 
C  -2.0389854250767776  -2.015940632791841  0.4912562833419403 
H  -1.8619130127668426  -1.8492165108145995  1.4101568590026907 

-Pd 0
lanl2dz
F 1 1.0
1.472 1.0
****
-P 0
6-31+g(d)
****
-N 0
6-31+g(d)
****
-C 0
6-31g(d)
****
-H 0
6-31g(d,p)
****
-Br 0
6-31+g(d)
****

-Pd 0
lanl2dz


