%chk=IRUFODUV_PN_Ni_gaussain.chk
%nprocshared=32
%mem=64GB
#p opt rwb97xd/gen pseudo=read

This Gaussian input file was generated using the DART python program. This file was generated on the 2023-08-13 at 16:51:13

0 1
Ni  0.0  0.0  0.0 
P  1.4045738917906747  -1.4516446474602516  2.878575841232383e-15 
N  1.404573891790674  1.451644647460252  -2.887974995636742e-16 
H  1.1099209791432565  2.103875995301821  0.6983141914361889 
C  2.845555224696955  -0.47232165509622365  0.47916236793268124 
C  4.065605605038219  -1.0034274366308953  0.9054259345784508 
H  4.189430903330707  -1.9453006301787228  0.9246129817402885 
C  5.087346629467554  -0.17310269626911673  1.2974116161298057 
H  5.917482094325506  -0.5401917844507953  1.5782936399815406 
C  4.90623867052023  1.1979607650829138  1.2825269881086598 
H  5.606557072942097  1.7695015422638642  1.5745376304638554 
C  3.7146386548278914  1.7417068715291277  0.8461872645827648 
H  3.601741534618167  2.684548900667994  0.816680513869522 
C  2.687988449535086  0.9060279626980897  0.45293161324741654 
C  1.9591971642205555  -2.4603843914202805  -1.4100677411509974 
C  3.071865557319035  -2.0967992668352693  -2.149610055139951 
H  3.6106328636911336  -1.3663320985408796  -1.8692572673376155 
C  3.399712445538781  -2.8001721837446443  -3.301647366880795 
H  4.1568484066855715  -2.5396097377894566  -3.8125119654744077 
C  2.6389741954142907  -3.8697671412409598  -3.7081662861158224 
H  2.8732366816560675  -4.34590458383703  -4.496261282482318 
C  1.544826312366847  -4.250065519336358  -2.9783603916199843 
H  1.0256550820578056  -4.996175813542955  -3.2546380825368453 
C  1.1927343957859564  -3.545546870926568  -1.8318517233923068 
H  0.4258669471032961  -3.8044667075805267  -1.334720659850642 
C  1.1732488561313956  -2.571995125688795  1.4188618233677153 
C  1.701913804788536  -3.8592808352247903  1.4528411418682743 
H  2.148837853684462  -4.2160539862201905  0.6940849535921577 
C  1.567139699706206  -4.615871683351122  2.6114240776699025 
H  1.9158447882917198  -5.4992335255509435  2.6391505440856613 
C  0.9383116904639845  -4.103191130777817  3.712798612424384 
H  0.8671902755098424  -4.623521806278538  4.504255226818333 
C  0.4072839276554996  -2.8343463461932803  3.6773194951970374 
H  -0.03969904072949482  -2.4841948846153405  4.43906227982228 
C  0.5269400787062213  -2.064595748514315  2.5231124544592745 
H  0.16182474094120924  -1.1877392690535913  2.4970723976911424 
C  1.5520982822088176  2.2148652069397277  -1.2516718027580669 
C  1.275030289730931  3.5723268477397747  -1.2440428250599083 
H  1.0190084963840413  4.011051921478895  -0.4414179556445222 
C  1.3783179514849353  4.269950124050396  -2.422126257283206 
H  1.1709324037096192  5.196393236249332  -2.4350709254166576 
C  1.773234849466577  3.657688685581285  -3.573506083688172 
H  1.8544123288163463  4.159686489434278  -4.375647799205577 
C  2.0562299403435556  2.299443347474882  -3.570742019334098 
H  2.3257782149732984  1.868070634396942  -4.372736732568482 
C  1.944398881419944  1.5696530252679415  -2.3898405162978973 
H  2.1377956383350982  0.6395282923573888  -2.3758521052811505 
Br  -1.5839191898578664  1.5839191898578664  0.0 
C  -1.2937473829822488  -1.2398794889499034  -0.4598005675376139 
C  -1.601562203225019  -1.4938654694550033  -1.7919791134336869 
H  -1.1309417375171225  -1.0428217585005106  -2.480879663633267 
C  -2.60218398542082  -2.411889969420291  -2.121542410022959 
H  -2.8231586547736818  -2.5626138747145775  -3.03270050271447 
C  -3.2683208079706407  -3.09759503004543  -1.143064365570095 
H  -3.9596020908062854  -3.707191723557817  -1.3683280760515548 
C  -2.9347449854640226  -2.896087320001541  0.14198826503765638 
H  -3.3668350933519986  -3.405606940434718  0.8171022443470677 
C  -1.9675509241539992  -1.9516175659140573  0.5112421903797603 
H  -1.7755298364628027  -1.8022912010877177  1.4301324877763764 

-Ni 0
lanl2dz
F 1 1.0
3.130 1.0
****
-C 0
6-31g(d)
****
-N 0
6-31+g(d)
****
-H 0
6-31g(d,p)
****
-Br 0
6-31+g(d)
****
-P 0
6-31+g(d)
****

-Ni 0
lanl2dz


