%chk=TUYAZUQA_PN_Ni_gaussain.chk
%nprocshared=32
%mem=64GB
#p opt rwb97xd/gen pseudo=read

This Gaussian input file was generated using the DART python program. This file was generated on the 2023-10-04 at 16:41:16

0 1
Ni  0.0  0.0  0.0 
P  1.1832764163541856  -1.6370573974360227  -2.837476593972433e-15 
N  1.1832764163541845  1.6370573974360227  6.321855582898153e-16 
C  2.5093931550592803  1.551926448320692  -0.2893821985349664 
C  3.2950714140897643  2.7032424546818308  -0.3764368755115241 
H  4.212788601316418  2.630847809151614  -0.6133351439040712 
C  2.755219050001142  3.929303155512233  -0.12581606059941994 
H  3.3045263977056347  4.705679965507176  -0.13306220853808834 
C  1.3824351340095524  4.034166968026607  0.1409201964407436 
H  0.9709662676160429  4.878779788056969  0.2817847279211962 
C  0.6550768099517689  2.870873104303404  0.19139241699629572 
H  -0.2754958326160515  2.9350304577135513  0.37017309522459035 
C  3.1871650148922255  0.20147344132012307  -0.4310898973439133 
H  3.4185062895684144  -0.11459882090501455  0.4794721541842107 
H  4.040872156671407  0.3440774302612758  -0.9128816349373758 
C  2.4406119477087915  -0.9325006959993672  -1.138371703818212 
H  3.0804427128697416  -1.6371915619438433  -1.4106220030063004 
H  1.9979076203291135  -0.584390800223846  -1.9524952257622097 
C  2.2437848256882096  -2.3161543684653756  1.354586131506835 
C  2.3363934447545063  -1.6190514038488881  2.581126204393822 
C  3.21115764946847  -2.0886891521673894  3.5543644442433764 
H  3.256628440243788  -1.6327984783468525  4.387584601650622 
C  4.020860493327943  -3.203897774576947  3.354438750173619 
C  3.8957117756867286  -3.8557178980932347  2.17816572699745 
H  4.435985733730691  -4.6242226872169585  2.0385119789151536 
C  3.0295777046362757  -3.480901498276699  1.1637483339120624 
C  1.5572519992431875  -0.37245118800046495  2.896300282854008 
H  1.7366525209147783  -0.10037269173173066  3.820966711730989 
H  0.5992911395536518  -0.5496742441097969  2.789843720415686 
H  1.8275506517671367  0.34455686061065355  2.286782976561041 
C  5.061191123736502  -3.617105555843172  4.399050356913099 
H  4.76981958419887  -4.440866941431794  4.842841417616903 
H  5.157925250992135  -2.9033675941626518  5.0635135693487205 
H  5.923378917604568  -3.770320565526302  3.957571627059982 
C  3.0057889986409956  -4.292239287703175  -0.11673832705542961 
H  3.6358367085634944  -5.038168047997436  -0.04334277005570441 
H  3.2615877285217776  -3.720584856731049  -0.8701199377557065 
H  2.1015421889446104  -4.641094407807369  -0.264494350049518 
C  0.19544757225585996  -3.0205972437159203  -0.6805691430877442 
C  -0.6992497772023916  -3.634119837103945  0.24305650092332326 
C  -1.592721873086666  -4.59692933142505  -0.2328502982730895 
H  -2.1695095184695905  -5.031463820633638  0.38439458815518346 
C  -1.6666374368814896  -4.942195441755242  -1.5705587913635604 
C  -0.7827773894760084  -4.356902139577397  -2.4688822615157 
H  -0.8166178886697033  -4.608412255010654  -3.3843736391097634 
C  0.1606332608646499  -3.399005472389045  -2.0537084427201284 
C  -0.7445489484203569  -3.2824432673625945  1.7037906538005678 
H  -1.5397590269067567  -3.6821390239223897  2.112347655039998 
H  -0.7801444487229694  -2.3078419873470883  1.8035668300669647 
H  0.05912883806724567  -3.6256823565234617  2.1472558194883047 
C  -2.733902658871526  -5.921860246124252  -2.05848756384088 
H  -3.4862028528261604  -5.422144535922973  -2.442506114374394 
H  -3.0520124376418387  -6.460579454370258  -1.3042260154920966 
H  -2.3504419329315747  -6.510765831542297  -2.7414829321451237 
C  1.0269442950014391  -2.836091571848174  -3.140303032579098 
H  0.8061234368946644  -1.8916241802823102  -3.2791573983504443 
H  0.8752858447888627  -3.3338735990857664  -3.970038151661291 
H  1.9698892473695584  -2.917371428136903  -2.880092326102193 
Br  -1.5839191898578664  1.5839191898578664  0.0 
C  -1.2937473829822488  -1.2398794889499034  -0.4598005675376139 
C  -1.601562203225019  -1.4938654694550033  -1.7919791134336869 
H  -1.1309417375171225  -1.0428217585005106  -2.480879663633267 
C  -2.60218398542082  -2.411889969420291  -2.121542410022959 
H  -2.8231586547736818  -2.5626138747145775  -3.03270050271447 
C  -3.2683208079706407  -3.09759503004543  -1.143064365570095 
H  -3.9596020908062854  -3.707191723557817  -1.3683280760515548 
C  -2.9347449854640226  -2.896087320001541  0.14198826503765638 
H  -3.3668350933519986  -3.405606940434718  0.8171022443470677 
C  -1.9675509241539992  -1.9516175659140573  0.5112421903797603 
H  -1.7755298364628027  -1.8022912010877177  1.4301324877763764 

-Ni 0
lanl2dz
F 1 1.0
3.130 1.0
****
-H 0
6-31g(d,p)
****
-P 0
6-31+g(d)
****
-N 0
6-31+g(d)
****
-C 0
6-31g(d)
****
-Br 0
6-31+g(d)
****

-Ni 0
lanl2dz


