%chk=FEXUDUHE_PN_Ni_gaussain.chk
%nprocshared=32
%mem=64GB
#p opt rwb97xd/gen pseudo=read

This Gaussian input file was generated using the DART python program. This file was generated on the 2023-10-04 at 16:41:16

0 1
Ni  0.0  0.0  0.0 
C  1.2436238282689442  2.765773950689889  0.1820350608495996 
H  0.36357220281208225  3.1208779459192018  0.14003578582100012 
C  2.304942652135375  3.6531476599227197  0.4322866028411832 
H  2.1307022011720127  4.577759716913236  0.5629754673853744 
C  3.5768735553107014  3.1906287708732686  0.4863445793116597 
H  4.302649136986155  3.790990702479597  0.6162227765643081 
C  3.8117088303194486  1.8015575762443554  0.34574628677661245 
C  5.099578700048905  1.2270823151156953  0.43790019604900277 
H  5.855592841773312  1.7935578035027786  0.542592118227389 
C  5.280597238095858  -0.12807424093356112  0.37972548092234293 
H  6.154830207850807  -0.49523585469337195  0.44680397207098443 
C  4.1687529202092914  -0.9758209054796638  0.2193765628269463 
H  4.292693092042649  -1.9186241703215092  0.21282464635363607 
C  2.8995514589622795  -0.45212726653752  0.07075596095759856 
C  2.691825198325517  0.9501850927003395  0.12959232531345377 
C  1.6239194965513175  -2.836069347027343  -1.143045828193115 
C  0.7087091986074449  -3.8907433337617663  -1.071880933454038 
H  0.06504064544292643  -3.9119069415433394  -0.37378329316810877 
C  0.7389900071396388  -4.904870246850978  -2.017864721255286 
H  0.12191302612770993  -5.625105213214018  -1.9622045673456872 
C  1.668568745267669  -4.86820012450987  -3.0437527276906122 
H  1.6911292659451838  -5.566124686407648  -3.687744395964787 
C  2.56635802512887  -3.81563716498275  -3.133883162050084 
H  3.1949468089974205  -3.7905481650733446  -3.845010838967722 
C  2.550705549477261  -2.797481418423362  -2.187511588219761 
H  3.167587921564958  -2.0777770493370373  -2.250406422073676 
C  1.295652414596376  -2.1757891268546223  1.672917140979892 
C  1.5848383262173609  -3.5077141613465557  1.9704945947857904 
H  1.8720498588672594  -4.097340313011212  1.2843163622645042 
C  1.4499221053628795  -3.970094692666266  3.2785446846550217 
H  1.6411481479181518  -4.8775296067876095  3.479624512788599 
C  1.0395183664716432  -3.1139059891475824  4.285777470594372 
H  0.9249234800729293  -3.4411658508310428  5.170253968270968 
C  0.7955736925079774  -1.7757887262622707  4.003617433003848 
H  0.5353679080405309  -1.1823448321773367  4.698717795759488 
C  0.9330597943517771  -1.3056877635979778  2.703490767366246 
H  0.7797171228847921  -0.3872359157261962  2.51497984394725 
N  1.399410775112154  1.4566226287202866  0.0 
P  1.399410775112154  -1.456622628720287  0.0 
Br  -1.5839191898578664  1.5839191898578664  0.0 
C  -1.2937473829822488  -1.2398794889499034  -0.4598005675376139 
C  -1.601562203225019  -1.4938654694550033  -1.7919791134336869 
H  -1.1309417375171225  -1.0428217585005106  -2.480879663633267 
C  -2.60218398542082  -2.411889969420291  -2.121542410022959 
H  -2.8231586547736818  -2.5626138747145775  -3.03270050271447 
C  -3.2683208079706407  -3.09759503004543  -1.143064365570095 
H  -3.9596020908062854  -3.707191723557817  -1.3683280760515548 
C  -2.9347449854640226  -2.896087320001541  0.14198826503765638 
H  -3.3668350933519986  -3.405606940434718  0.8171022443470677 
C  -1.9675509241539992  -1.9516175659140573  0.5112421903797603 
H  -1.7755298364628027  -1.8022912010877177  1.4301324877763764 

-Ni 0
lanl2dz
F 1 1.0
3.130 1.0
****
-H 0
6-31g(d,p)
****
-P 0
6-31+g(d)
****
-N 0
6-31+g(d)
****
-C 0
6-31g(d)
****
-Br 0
6-31+g(d)
****

-Ni 0
lanl2dz


