%chk=BEPUPOZO_PN_Ni_gaussain.chk
%nprocshared=32
%mem=64GB
#p opt rwb97xd/gen pseudo=read

This Gaussian input file was generated using the DART python program. This file was generated on the 2023-08-13 at 16:51:13

0 1
Ni  0.0  0.0  0.0 
P  1.3926231417723909  -1.4631133876087656  -3.380872457308067e-15 
C  2.8223683940623627  -0.9812711900247523  -1.0056805955082195 
C  3.5255478324341745  -1.9157728196179393  -1.7236923166791156 
H  3.2319435885121504  -2.796584837274497  -1.7405777394680093 
C  4.673961867790661  -1.5639511601624894  -2.4306008986996384 
H  5.12790038654763  -2.2047144550238778  -2.9280705270661334 
C  5.131579478038601  -0.2822584452425428  -2.388546204406409 
H  5.909152201875116  -0.05245874014278641  -2.841606437357303 
C  4.446580929760058  0.6691639440194909  -1.6796461860207565 
H  4.768262440084683  1.5416219714087758  -1.6480989775980484 
C  3.277382764225765  0.3445936311361374  -1.0053660278475445 
C  2.6228243037801735  1.4166849764033838  -0.26878092124940267 
H  3.15300276469178  2.1221043675052744  0.024563624026019044 
C  1.0492974989838966  -3.174787876551153  -0.4679079791023955 
C  1.264810994915265  -4.227736484668154  0.3763948941225652 
H  1.6300085525358157  -4.083794397346952  1.2179418918628082 
C  0.9347593539245489  -5.529457418349662  -0.038897370547362656 
H  1.0850826026392126  -6.251231560356477  0.5310448009281332 
C  0.3958621161669068  -5.734775090612211  -1.2650372812402295 
H  0.16323798266344847  -6.594768024622912  -1.5333062991372524 
C  0.19153634162094235  -4.680460118810119  -2.112256991876244 
H  -0.16053245803493565  -4.833015099777655  -2.9594016478180927 
C  0.5019164838144714  -3.399573995511843  -1.72552208722727 
H  0.3455303450471483  -2.6869677109749994  -2.3012124543866057 
C  2.015766116055553  -1.464694454407546  1.69271336434418 
C  3.365575378753984  -1.6482290712555776  1.9542483118215657 
H  3.96601320171848  -1.7990596677554627  1.2609603111226078 
C  3.8041934177295302  -1.6010935104821817  3.268329349960326 
H  4.70632580036915  -1.7408480925478849  3.4523472050304287 
C  2.9549102764096773  -1.3608471440850531  4.282794790132082 
H  3.277742169596705  -1.3019180578432041  5.152614214803674 
C  1.6088549798375669  -1.200691128847595  4.041118561773944 
H  1.013796178871167  -1.060635517481133  4.741563783841446 
C  1.1584871597614874  -1.2533487667671799  2.719080808981432 
H  0.25320588719615045  -1.1406208323522282  2.5401859226793215 
C  0.9476285054095877  2.5540917311319467  0.8889275659871102 
H  -0.00019221769047916837  2.49127402966165  1.024065026537763 
H  1.1593544058651903  3.399882180785669  0.4867549061122502 
H  1.3978570774421961  2.481372572178798  1.7336887433897237 
N  1.3926231417723893  1.463113387608766  -4.0122431761750295e-16 
Br  -1.5839191898578664  1.5839191898578664  0.0 
C  -1.2937473829822488  -1.2398794889499034  -0.4598005675376139 
C  -1.601562203225019  -1.4938654694550033  -1.7919791134336869 
H  -1.1309417375171225  -1.0428217585005106  -2.480879663633267 
C  -2.60218398542082  -2.411889969420291  -2.121542410022959 
H  -2.8231586547736818  -2.5626138747145775  -3.03270050271447 
C  -3.2683208079706407  -3.09759503004543  -1.143064365570095 
H  -3.9596020908062854  -3.707191723557817  -1.3683280760515548 
C  -2.9347449854640226  -2.896087320001541  0.14198826503765638 
H  -3.3668350933519986  -3.405606940434718  0.8171022443470677 
C  -1.9675509241539992  -1.9516175659140573  0.5112421903797603 
H  -1.7755298364628027  -1.8022912010877177  1.4301324877763764 

-Ni 0
lanl2dz
F 1 1.0
3.130 1.0
****
-C 0
6-31g(d)
****
-N 0
6-31+g(d)
****
-H 0
6-31g(d,p)
****
-Br 0
6-31+g(d)
****
-P 0
6-31+g(d)
****

-Ni 0
lanl2dz


