%chk=ISUVEJOK_PN_Ni_gaussain.chk
%nprocshared=32
%mem=64GB
#p opt rwb97xd/gen pseudo=read

This Gaussian input file was generated using the DART python program. This file was generated on the 2023-08-13 at 16:51:13

0 1
Ni  0.0  0.0  0.0 
P  1.3928906821786122  1.462858690202167  1.2621467594951103e-15 
N  1.392890682178612  -1.4628586902021674  1.1102230246251565e-16 
N  2.7364252456398033  0.44511137464002926  -0.1964684922608813 
H  3.5271834539312863  0.8041556647808716  -0.34087158688466246 
C  2.6240353707968973  -0.9394775016239396  -0.1360741236585038 
C  3.778045168609232  -1.7462404158442448  -0.23837704048883313 
H  4.638468514422966  -1.353250666492208  -0.33092693450795146 
C  3.631282407603326  -3.114331328113713  -0.2010647402699579 
H  4.392185674021709  -3.678537304075708  -0.2776181584995803 
C  2.354783861086167  -3.6710997094038014  -0.05033411851293275 
H  2.2326761117918905  -4.612051822016791  -0.011979596857210199 
C  1.2776791677027346  -2.810360901593193  0.040834265371987616 
H  0.4100717973808947  -3.185077317246604  0.13733954400014867 
C  1.5889347350148428  2.70306298823267  -1.344314709617596 
H  2.4987200252106625  3.1122734396654543  -1.2745387669044552 
C  1.4712617375789145  1.994604941709549  -2.694844665594564 
H  0.605640388047076  1.5395286452369221  -2.750094404267791 
H  2.1925893712555293  1.337523665549402  -2.78241116269402 
H  1.5407136610684413  2.6534862379383695  -3.4169598972601682 
C  0.5364766074653435  3.8132851859594723  -1.209477172448953 
H  0.6311836993103357  4.4449635026616106  -1.952747648764702 
H  0.6667634710307266  4.2855959290460195  -0.36046183386704905 
H  -0.3598682711862644  3.417482666633438  -1.2291116882364195 
C  1.7126628315660053  2.3564882928122026  1.5855345678398916 
H  0.8878887553658718  2.8762841385031592  1.8073309204488974 
C  1.916569448246893  1.3210373465621135  2.7007335274805504 
H  2.744743133055721  0.8232396543603044  2.5370992235319685 
H  1.1592246537724522  0.6995979648304675  2.712301462277796 
H  1.975847719124632  1.7796236300446895  3.5651744608030143 
C  2.8793237047875673  3.3486021516015487  1.534182468641598 
H  3.0125067460731514  3.7432271887746333  2.4218977200314225 
H  2.677742359009782  4.057293053835397  0.8885990610749132 
H  3.6946195800952166  2.879250504994374  1.2596338981964141 
Br  -1.5839191898578664  1.5839191898578664  0.0 
C  -1.2937473829822488  -1.2398794889499034  -0.4598005675376139 
C  -1.601562203225019  -1.4938654694550033  -1.7919791134336869 
H  -1.1309417375171225  -1.0428217585005106  -2.480879663633267 
C  -2.60218398542082  -2.411889969420291  -2.121542410022959 
H  -2.8231586547736818  -2.5626138747145775  -3.03270050271447 
C  -3.2683208079706407  -3.09759503004543  -1.143064365570095 
H  -3.9596020908062854  -3.707191723557817  -1.3683280760515548 
C  -2.9347449854640226  -2.896087320001541  0.14198826503765638 
H  -3.3668350933519986  -3.405606940434718  0.8171022443470677 
C  -1.9675509241539992  -1.9516175659140573  0.5112421903797603 
H  -1.7755298364628027  -1.8022912010877177  1.4301324877763764 

-Ni 0
lanl2dz
F 1 1.0
3.130 1.0
****
-C 0
6-31g(d)
****
-N 0
6-31+g(d)
****
-H 0
6-31g(d,p)
****
-Br 0
6-31+g(d)
****
-P 0
6-31+g(d)
****

-Ni 0
lanl2dz


