%chk=VOKEBIXI_PN_Pd_gaussain.chk
%nprocshared=32
%mem=64GB
#p opt rwb97xd/gen pseudo=read

This Gaussian input file was generated using the DART python program. This file was generated on the 2023-10-04 at 09:55:46

0 1
Pd  0.0  0.0  0.0 
P  1.4890637184150322  -1.5082404458507273  2.904292043407548e-15 
N  1.4890637184150313  1.5082404458507273  -2.957284858980827e-16 
H  1.0456053213545842  2.3101278692567555  -0.08456122196267615 
H  1.9845947437406795  1.5719537949154363  0.7723893720725894 
C  0.8482478713568373  -3.0313147251008634  -0.7197604254512724 
H  0.27895879136690427  -2.8156836525522446  -1.4866594891850649 
H  0.322190575994044  -3.513922134948855  -0.04709237213268648 
H  1.5953974454625823  -3.592873392573321  -1.0144086681071296 
C  2.504882996460129  -2.060111261468928  1.388957989724992 
H  2.8959239716343848  -1.2818319968932477  1.8385466929486343 
H  3.22248764392382  -2.6401007236309693  1.0583597384901922 
H  1.9482228562835142  -2.5592995156171767  2.0229633802848808 
C  2.704818325547694  -1.0154243852253624  -1.2593140893460422 
H  3.390653347701039  -1.726323103629124  -1.326733185749237 
H  2.2457562789135883  -0.9630161666170782  -2.1347361509611504 
C  3.405582725072112  0.303565962416389  -1.0074296730216301 
H  3.8162694829688233  0.2846409958578242  -0.10732718856273797 
H  4.1337956746061675  0.41453281485721294  -1.6700082478263911 
C  2.474353807972696  1.486881755935851  -1.0978652675918925 
H  3.0063703954795846  2.3211825953422878  -1.0728988905369625 
H  1.9949332362165655  1.4571642462885614  -1.9637398052689188 
Br  -1.654629867976521  1.654629867976521  0.0 
C  -1.352040782177733  -1.3199206589279684  -0.4819701001757076 
C  -1.6380700204479186  -1.599217458033982  -1.8139382277462257 
H  -1.1579680913617836  -1.159339363685303  -2.503515938957912 
C  -2.63068216563725  -2.52632649780156  -2.142289956238523 
H  -2.8368222554424674  -2.694399528648736  -3.0538898079700485 
C  -3.3101544432602585  -3.1961573187854975  -1.1619874135498987 
H  -3.9960123560788676  -3.811990145619169  -1.3868663427944008 
C  -2.9974710358883443  -2.9701089012107795  0.12423560353005347 
H  -3.438659168087169  -3.468581175155742  0.8017084178296768 
C  -2.0389854250767776  -2.015940632791841  0.4912562833419403 
H  -1.8619130127668426  -1.8492165108145995  1.4101568590026907 

-Pd 0
lanl2dz
F 1 1.0
1.472 1.0
****
-P 0
6-31+g(d)
****
-N 0
6-31+g(d)
****
-C 0
6-31g(d)
****
-H 0
6-31g(d,p)
****
-Br 0
6-31+g(d)
****

-Pd 0
lanl2dz


