%chk=AZOKUVEM_PN_Pd_gaussain.chk
%nprocshared=32
%mem=64GB
#p opt rwb97xd/gen pseudo=read

This Gaussian input file was generated using the DART python program. This file was generated on the 2023-10-04 at 09:55:46

0 1
Pd  0.0  0.0  0.0 
P  1.5235755806654308  -1.473369420749596  3.597372669764093e-15 
N  1.5235755806654294  1.473369420749596  2.6365349534180437e-16 
C  3.0424605617268687  -0.4453583675343025  -0.25836636540619157 
H  3.762155279972413  -0.7723879998955194  0.35429039990955713 
C  3.421793025688015  -0.7892669099976086  -1.6932203566561426 
C  4.083912604708736  -0.015007858646035467  -2.5493176376222997 
H  4.385710001735616  0.8362985227242687  -2.2502407308140335 
C  4.378874807012044  -0.42488171749995424  -3.9800381096365327 
H  4.137875645528659  0.3180410516200317  -4.5882527208449275 
H  5.349676374552141  -0.5917655326092053  -4.075724465593302 
C  3.630084416247872  -1.6472661410097786  -4.381866757022209 
H  4.0756932884894255  -2.04135562856314  -5.17339581446709 
H  2.7171060391398285  -1.3805914466211158  -4.655907812898683 
C  3.5224299959452656  -2.7017215532916388  -3.3180266612846756 
H  2.944455219110263  -3.43870480725897  -3.64034442485697 
H  4.4194665006675375  -3.0761373666178993  -3.1298076188715878 
C  2.945403646988121  -2.1177174889462336  -2.0680436472251724 
C  1.9770955827773506  -2.634198738850854  -1.294771281702296 
C  1.2691619991039946  -3.934160929613271  -1.4702437687069343 
C  -0.021005701976593683  -3.9740846983379368  -1.9395752142539406 
H  -0.4682403810001132  -3.166031956620054  -2.1627632705673094 
C  -0.6788469458739972  -5.194015595970889  -2.0910044149649485 
H  -1.5745912693111805  -5.212845652852269  -2.4067410868735766 
C  -0.03821782710185051  -6.364508871935992  -1.7852051620199672 
H  -0.4853721209297748  -7.1958904472212994  -1.8994234345834131 
C  1.224419347678162  -6.337355023460135  -1.326428774902563 
H  1.656627015571604  -7.152003857008846  -1.1024341771734132 
C  1.9126198596321669  -5.129705763918184  -1.172261653654097 
H  2.810919840839582  -5.127136577978331  -0.8668459647211589 
C  2.799807820295876  1.0074124989270152  0.013838624697328538 
C  3.865025854913841  1.8657038019707746  0.21286314038342624 
H  4.75084313229168  1.5233489024484448  0.24180366339148887 
C  3.6467786696755624  3.216402168567472  0.3708309491565526 
H  4.37413070519235  3.809776516974409  0.5149014495451842 
C  2.3647015585827758  3.688285642059324  0.31580551269987905 
H  2.187920503731008  4.619449687327756  0.3967842101753667 
C  1.3326150632307934  2.791546968517553  0.14203155755517452 
H  0.44416465891187906  3.1235005933940427  0.1230895408482433 
C  1.6858739814181432  -2.297820887498508  1.594105726759907 
C  2.784234759153971  -3.1006899258678344  1.8700391411182744 
H  3.439575445870945  -3.2522442997100693  1.198164438437314 
C  2.929880821557279  -3.6794416754230617  3.11242458327911 
H  3.686173485648304  -4.2217398653729346  3.2977214786098727 
C  1.9760568662190854  -3.470331790515003  4.085808956616175 
H  2.0882351906409657  -3.845209300677386  4.950672723867625 
C  0.8630408515045318  -2.716998719820958  3.7970699990998114 
H  0.1858031422943882  -2.611807063324416  4.456931007667052 
C  0.7151635022157484  -2.1052863432050084  2.5609852253637 
H  -0.044646949478810205  -1.562269263623597  2.3802014628776833 
Br  -1.654629867976521  1.654629867976521  0.0 
C  -1.352040782177733  -1.3199206589279684  -0.4819701001757076 
C  -1.6380700204479186  -1.599217458033982  -1.8139382277462257 
H  -1.1579680913617836  -1.159339363685303  -2.503515938957912 
C  -2.63068216563725  -2.52632649780156  -2.142289956238523 
H  -2.8368222554424674  -2.694399528648736  -3.0538898079700485 
C  -3.3101544432602585  -3.1961573187854975  -1.1619874135498987 
H  -3.9960123560788676  -3.811990145619169  -1.3868663427944008 
C  -2.9974710358883443  -2.9701089012107795  0.12423560353005347 
H  -3.438659168087169  -3.468581175155742  0.8017084178296768 
C  -2.0389854250767776  -2.015940632791841  0.4912562833419403 
H  -1.8619130127668426  -1.8492165108145995  1.4101568590026907 

-Pd 0
lanl2dz
F 1 1.0
1.472 1.0
****
-P 0
6-31+g(d)
****
-N 0
6-31+g(d)
****
-C 0
6-31g(d)
****
-H 0
6-31g(d,p)
****
-Br 0
6-31+g(d)
****

-Pd 0
lanl2dz


